Ir  O  H                                
   1.00000000000000     
     9.5301187200000008    0.0000000000000000    0.0000000000000000
     0.0000000000000000   12.7429519599999992    0.0000000000000000
     0.0000000000000000    0.0000000000000000   29.9954083400000009
   Ir   O    H 
    48    97     1
Selective dynamics
Direct
  0.2926360299999970  0.1224274300000019  0.0406427899999997   F   F   F
  0.2926360299999970  0.3724274300000019  0.1468503199999986   F   F   F
  0.2927652728792651  0.1226453809561505  0.2539121270724749   T   T   T
  0.2930630125281013  0.3727056749710300  0.3581019839830830   T   T   T
  0.1259693700000000  0.3724274300000019  0.0406427899999997   F   F   F
  0.1259693700000000  0.1224274300000019  0.1468503199999986   F   F   F
  0.1260432890430536  0.3725298670764090  0.2533095707229336   T   T   T
  0.1261921636433243  0.1227502724317304  0.3613030239578876   T   T   T
  0.6259693700000000  0.1224274300000019  0.0406427899999997   F   F   F
  0.6259693700000000  0.3724274300000019  0.1468503199999986   F   F   F
  0.6260808478544888  0.1223227555681135  0.2539035508421179   T   T   T
  0.6261017091097827  0.3727058059062074  0.3614333922390074   T   T   T
  0.4593027000000021  0.3724274300000019  0.0406427899999997   F   F   F
  0.4593027000000021  0.1224274300000019  0.1468503199999986   F   F   F
  0.4610020987002343  0.3725190208788618  0.2536322102704318   T   T   T
  0.4595118777246583  0.1227078123267304  0.3612512237106600   T   T   T
  0.9593027000000021  0.1224274300000019  0.0406427899999997   F   F   F
  0.9593027000000021  0.3724274300000019  0.1468503199999986   F   F   F
  0.9593749200393589  0.1226446903337930  0.2539245052235017   T   T   T
  0.9596516292860358  0.3727129878719282  0.3581473194969647   T   T   T
  0.7926360299999970  0.3724274300000019  0.0406427899999997   F   F   F
  0.7926360299999970  0.1224274300000019  0.1468503199999986   F   F   F
  0.7911796170412018  0.3725373716193019  0.2536496666519312   T   T   T
  0.7928348836589123  0.1226274081926988  0.3612832643605657   T   T   T
  0.2926360299999970  0.6224274300000019  0.0406427899999997   F   F   F
  0.2926360299999970  0.8724274300000019  0.1468503199999986   F   F   F
  0.2927740638984488  0.6224213436910162  0.2539122378713330   T   T   T
  0.2927949078764627  0.8727221812418691  0.3584826712599849   T   T   T
  0.1259693700000000  0.8724274300000019  0.0406427899999997   F   F   F
  0.1259693700000000  0.6224274300000019  0.1468503199999986   F   F   F
  0.1260755907550219  0.8725326855558180  0.2535305807469754   T   T   T
  0.1262105081701606  0.6226773489895834  0.3613044321243279   T   T   T
  0.6259693700000000  0.6224274300000019  0.0406427899999997   F   F   F
  0.6259693700000000  0.8724274300000019  0.1468503199999986   F   F   F
  0.6260895837968619  0.6227431900915406  0.2538991332871561   T   T   T
  0.6262025764730978  0.8727135321486514  0.3585912722158824   T   T   T
  0.4593027000000021  0.8724274300000019  0.0406427899999997   F   F   F
  0.4593027000000021  0.6224274300000019  0.1468503199999986   F   F   F
  0.4593438128426968  0.8725297663489471  0.2535497991217355   T   T   T
  0.4595370038750062  0.6227216809034104  0.3612395666871535   T   T   T
  0.9593027000000021  0.6224274300000019  0.0406427899999997   F   F   F
  0.9593027000000021  0.8724274300000019  0.1468503199999986   F   F   F
  0.9593916773116860  0.6224219895531391  0.2539226309189218   T   T   T
  0.9596151002997786  0.8727185450898176  0.3584638283617778   T   T   T
  0.7926360299999970  0.8724274300000019  0.0406427899999997   F   F   F
  0.7926360299999970  0.6224274300000019  0.1468503199999986   F   F   F
  0.7927913254214971  0.8725181660161994  0.2535446505690615   T   T   T
  0.7928615860879304  0.6227815977499489  0.3612868912117193   T   T   T
  0.1259693700000000  0.2180957799999987  0.0406427899999997   F   F   F
  0.1259693700000000  0.4680957799999987  0.1468503199999986   F   F   F
  0.1260671719860724  0.2184046084838158  0.2536438830798531   T   T   T
  0.1263197132732969  0.4681874356210898  0.3612393379411643   T   T   T
  0.1259693700000000  0.0267590799999979  0.0406427899999997   F   F   F
  0.1259693700000000  0.2767590799999979  0.1468503199999986   F   F   F
  0.1260583352915248  0.0268725951697419  0.2538878350250684   T   T   T
  0.1263072585615319  0.2772327429819796  0.3613099131832413   T   T   T
  0.2926360299999970  0.3724274300000019  0.0812855900000002   F   F   F
  0.2926360299999970  0.1224274300000019  0.1874931099999984   F   F   F
  0.2932233305462191  0.3724572462658386  0.2940403174021498   T   T   T
  0.2930113658643521  0.1224426552294773  0.4011977972943441   T   T   T
  0.2926360299999970  0.3724274300000019  0.0000000000000000   F   F   F
  0.2926360299999970  0.1224274300000019  0.1062075199999981   F   F   F
  0.2932323360354516  0.3725412601029561  0.2126711822486271   T   T   T
  0.2928061121751497  0.1229284993493778  0.3196565450452482   T   T   T
  0.4593027000000021  0.2180957799999987  0.0406427899999997   F   F   F
  0.4593027000000021  0.4680957799999987  0.1468503199999986   F   F   F
  0.4597218322061281  0.2182251360342917  0.2536030611827158   T   T   T
  0.4590492245920572  0.4685103997350666  0.3606810731813681   T   T   T
  0.4593027000000021  0.0267590799999979  0.0406427899999997   F   F   F
  0.4593027000000021  0.2767590799999979  0.1468503199999986   F   F   F
  0.4593401720639108  0.0267233271613421  0.2539047978107902   T   T   T
  0.4589704562781094  0.2768900232038973  0.3608528108310907   T   T   T
  0.6259693700000000  0.3724274300000019  0.0812855900000002   F   F   F
  0.6259693700000000  0.1224274300000019  0.1874931099999984   F   F   F
  0.6261314556355089  0.3724548667451444  0.2947716313716882   T   T   T
  0.6261696885071473  0.1207828042513839  0.4010230540426321   T   T   T
  0.6259693700000000  0.3724274300000019  0.0000000000000000   F   F   F
  0.6259693700000000  0.1224274300000019  0.1062075199999981   F   F   F
  0.6260788522970628  0.3724974016887472  0.2124893273891288   T   T   T
  0.6261987555747552  0.1226459560833817  0.3196226925194736   T   T   T
  0.7926360299999970  0.2180957799999987  0.0406427899999997   F   F   F
  0.7926360299999970  0.4680957799999987  0.1468503199999986   F   F   F
  0.7924333210229406  0.2182278337523584  0.2536283334446736   T   T   T
  0.7933048030807370  0.4683580370449718  0.3611531904198344   T   T   T
  0.7926360299999970  0.0267590799999979  0.0406427899999997   F   F   F
  0.7926360299999970  0.2767590799999979  0.1468503199999986   F   F   F
  0.7928213510482180  0.0267161721190803  0.2539345597770506   T   T   T
  0.7932426587890120  0.2770639062917297  0.3611812698440815   T   T   T
  0.9593027000000021  0.3724274300000019  0.0812855900000002   F   F   F
  0.9593027000000021  0.1224274300000019  0.1874931099999984   F   F   F
  0.9588998108291023  0.3722805870463048  0.2940648527237286   T   T   T
  0.9594308465414869  0.1224331497587343  0.4012099881205771   T   T   T
  0.9593027000000021  0.3724274300000019  0.0000000000000000   F   F   F
  0.9593027000000021  0.1224274300000019  0.1062075199999981   F   F   F
  0.9588068449580476  0.3725076301379460  0.2126815185370816   T   T   T
  0.9594806330943939  0.1229630533368393  0.3196708065486504   T   T   T
  0.1259693700000000  0.7180957799999987  0.0406427899999997   F   F   F
  0.1259693700000000  0.9680957799999987  0.1468503199999986   F   F   F
  0.1260826239671644  0.7181776177078234  0.2538239142282634   T   T   T
  0.1261685214964032  0.9683696089163476  0.3615506856104034   T   T   T
  0.1259693700000000  0.5267590799999979  0.0406427899999997   F   F   F
  0.1259693700000000  0.7767590799999979  0.1468503199999986   F   F   F
  0.1260689670633752  0.5266416882964648  0.2537192593037858   T   T   T
  0.1261885522970445  0.7770608379035622  0.3616405689337086   T   T   T
  0.2926360299999970  0.8724274300000019  0.0812855900000002   F   F   F
  0.2926360299999970  0.6224274300000019  0.1874931099999984   F   F   F
  0.2927229493964987  0.8723981762991784  0.2943425682029073   T   T   T
  0.2930308518991893  0.6229083844296639  0.4011905878069939   T   T   T
  0.2926360299999970  0.8724274300000019  0.0000000000000000   F   F   F
  0.2926360299999970  0.6224274300000019  0.1062075199999981   F   F   F
  0.2927117811135460  0.8725675492778535  0.2125302193304890   T   T   T
  0.2928140273807642  0.6225003203003041  0.3196554470443758   T   T   T
  0.4593027000000021  0.7180957799999987  0.0406427899999997   F   F   F
  0.4593027000000021  0.9680957799999987  0.1468503199999986   F   F   F
  0.4593249215600466  0.7183271829656022  0.2538377589778449   T   T   T
  0.4595144558260316  0.9683554215719568  0.3613869287755236   T   T   T
  0.4593027000000021  0.5267590799999979  0.0406427899999997   F   F   F
  0.4593027000000021  0.7767590799999979  0.1468503199999986   F   F   F
  0.4597422082549656  0.5268222960080990  0.2536697064437590   T   T   T
  0.4594868173040041  0.7770799407551081  0.3614792135002105   T   T   T
  0.6259693700000000  0.8724274300000019  0.0812855900000002   F   F   F
  0.6259693700000000  0.6224274300000019  0.1874931099999984   F   F   F
  0.6260807956836487  0.8721808963499385  0.2944022120724128   T   T   T
  0.6261828961830744  0.6245440691157285  0.4010202332289978   T   T   T
  0.6259693700000000  0.8724274300000019  0.0000000000000000   F   F   F
  0.6259693700000000  0.6224274300000019  0.1062075199999981   F   F   F
  0.6260448041769777  0.8725143606712820  0.2125554280875193   T   T   T
  0.6262519158286182  0.6227045251668315  0.3196181449849291   T   T   T
  0.7926360299999970  0.7180957799999987  0.0406427899999997   F   F   F
  0.7926360299999970  0.9680957799999987  0.1468503199999986   F   F   F
  0.7928278458084606  0.7183165941709291  0.2538289692669267   T   T   T
  0.7929184831406317  0.9683202486885278  0.3613901362066443   T   T   T
  0.7926360299999970  0.5267590799999979  0.0406427899999997   F   F   F
  0.7926360299999970  0.7767590799999979  0.1468503199999986   F   F   F
  0.7924622276110398  0.5268349121601759  0.2536935427277669   T   T   T
  0.7929353824088707  0.7770935024426180  0.3614834567994549   T   T   T
  0.9593027000000021  0.8724274300000019  0.0812855900000002   F   F   F
  0.9593027000000021  0.6224274300000019  0.1874931099999984   F   F   F
  0.9594472625012713  0.8721853547872698  0.2943249392304566   T   T   T
  0.9594462318296593  0.6227456973117924  0.4012154953047187   T   T   T
  0.9593027000000021  0.8724274300000019  0.0000000000000000   F   F   F
  0.9593027000000021  0.6224274300000019  0.1062075199999981   F   F   F
  0.9594031290390035  0.8725194560765601  0.2125260618123193   T   T   T
  0.9595003891521188  0.6223735617188453  0.3196720277630050   T   T   T
  0.6175422937499988  0.3728909309640827  0.4262471712385292   T   T   T
  0.7121722863034137  0.3754499665394562  0.4388365603629936   T   T   T
 
  0.00000000E+00  0.00000000E+00  0.00000000E+00
  0.00000000E+00  0.00000000E+00  0.00000000E+00
  0.00000000E+00  0.00000000E+00  0.00000000E+00
  0.00000000E+00  0.00000000E+00  0.00000000E+00
  0.00000000E+00  0.00000000E+00  0.00000000E+00
  0.00000000E+00  0.00000000E+00  0.00000000E+00
  0.00000000E+00  0.00000000E+00  0.00000000E+00
  0.00000000E+00  0.00000000E+00  0.00000000E+00
  0.00000000E+00  0.00000000E+00  0.00000000E+00
  0.00000000E+00  0.00000000E+00  0.00000000E+00
  0.00000000E+00  0.00000000E+00  0.00000000E+00
  0.00000000E+00  0.00000000E+00  0.00000000E+00
  0.00000000E+00  0.00000000E+00  0.00000000E+00
  0.00000000E+00  0.00000000E+00  0.00000000E+00
  0.00000000E+00  0.00000000E+00  0.00000000E+00
  0.00000000E+00  0.00000000E+00  0.00000000E+00
  0.00000000E+00  0.00000000E+00  0.00000000E+00
  0.00000000E+00  0.00000000E+00  0.00000000E+00
  0.00000000E+00  0.00000000E+00  0.00000000E+00
  0.00000000E+00  0.00000000E+00  0.00000000E+00
  0.00000000E+00  0.00000000E+00  0.00000000E+00
  0.00000000E+00  0.00000000E+00  0.00000000E+00
  0.00000000E+00  0.00000000E+00  0.00000000E+00
  0.00000000E+00  0.00000000E+00  0.00000000E+00
  0.00000000E+00  0.00000000E+00  0.00000000E+00
  0.00000000E+00  0.00000000E+00  0.00000000E+00
  0.00000000E+00  0.00000000E+00  0.00000000E+00
  0.00000000E+00  0.00000000E+00  0.00000000E+00
  0.00000000E+00  0.00000000E+00  0.00000000E+00
  0.00000000E+00  0.00000000E+00  0.00000000E+00
  0.00000000E+00  0.00000000E+00  0.00000000E+00
  0.00000000E+00  0.00000000E+00  0.00000000E+00
  0.00000000E+00  0.00000000E+00  0.00000000E+00
  0.00000000E+00  0.00000000E+00  0.00000000E+00
  0.00000000E+00  0.00000000E+00  0.00000000E+00
  0.00000000E+00  0.00000000E+00  0.00000000E+00
  0.00000000E+00  0.00000000E+00  0.00000000E+00
  0.00000000E+00  0.00000000E+00  0.00000000E+00
  0.00000000E+00  0.00000000E+00  0.00000000E+00
  0.00000000E+00  0.00000000E+00  0.00000000E+00
  0.00000000E+00  0.00000000E+00  0.00000000E+00
  0.00000000E+00  0.00000000E+00  0.00000000E+00
  0.00000000E+00  0.00000000E+00  0.00000000E+00
  0.00000000E+00  0.00000000E+00  0.00000000E+00
  0.00000000E+00  0.00000000E+00  0.00000000E+00
  0.00000000E+00  0.00000000E+00  0.00000000E+00
  0.00000000E+00  0.00000000E+00  0.00000000E+00
  0.00000000E+00  0.00000000E+00  0.00000000E+00
  0.00000000E+00  0.00000000E+00  0.00000000E+00
  0.00000000E+00  0.00000000E+00  0.00000000E+00
  0.00000000E+00  0.00000000E+00  0.00000000E+00
  0.00000000E+00  0.00000000E+00  0.00000000E+00
  0.00000000E+00  0.00000000E+00  0.00000000E+00
  0.00000000E+00  0.00000000E+00  0.00000000E+00
  0.00000000E+00  0.00000000E+00  0.00000000E+00
  0.00000000E+00  0.00000000E+00  0.00000000E+00
  0.00000000E+00  0.00000000E+00  0.00000000E+00
  0.00000000E+00  0.00000000E+00  0.00000000E+00
  0.00000000E+00  0.00000000E+00  0.00000000E+00
  0.00000000E+00  0.00000000E+00  0.00000000E+00
  0.00000000E+00  0.00000000E+00  0.00000000E+00
  0.00000000E+00  0.00000000E+00  0.00000000E+00
  0.00000000E+00  0.00000000E+00  0.00000000E+00
  0.00000000E+00  0.00000000E+00  0.00000000E+00
  0.00000000E+00  0.00000000E+00  0.00000000E+00
  0.00000000E+00  0.00000000E+00  0.00000000E+00
  0.00000000E+00  0.00000000E+00  0.00000000E+00
  0.00000000E+00  0.00000000E+00  0.00000000E+00
  0.00000000E+00  0.00000000E+00  0.00000000E+00
  0.00000000E+00  0.00000000E+00  0.00000000E+00
  0.00000000E+00  0.00000000E+00  0.00000000E+00
  0.00000000E+00  0.00000000E+00  0.00000000E+00
  0.00000000E+00  0.00000000E+00  0.00000000E+00
  0.00000000E+00  0.00000000E+00  0.00000000E+00
  0.00000000E+00  0.00000000E+00  0.00000000E+00
  0.00000000E+00  0.00000000E+00  0.00000000E+00
  0.00000000E+00  0.00000000E+00  0.00000000E+00
  0.00000000E+00  0.00000000E+00  0.00000000E+00
  0.00000000E+00  0.00000000E+00  0.00000000E+00
  0.00000000E+00  0.00000000E+00  0.00000000E+00
  0.00000000E+00  0.00000000E+00  0.00000000E+00
  0.00000000E+00  0.00000000E+00  0.00000000E+00
  0.00000000E+00  0.00000000E+00  0.00000000E+00
  0.00000000E+00  0.00000000E+00  0.00000000E+00
  0.00000000E+00  0.00000000E+00  0.00000000E+00
  0.00000000E+00  0.00000000E+00  0.00000000E+00
  0.00000000E+00  0.00000000E+00  0.00000000E+00
  0.00000000E+00  0.00000000E+00  0.00000000E+00
  0.00000000E+00  0.00000000E+00  0.00000000E+00
  0.00000000E+00  0.00000000E+00  0.00000000E+00
  0.00000000E+00  0.00000000E+00  0.00000000E+00
  0.00000000E+00  0.00000000E+00  0.00000000E+00
  0.00000000E+00  0.00000000E+00  0.00000000E+00
  0.00000000E+00  0.00000000E+00  0.00000000E+00
  0.00000000E+00  0.00000000E+00  0.00000000E+00
  0.00000000E+00  0.00000000E+00  0.00000000E+00
  0.00000000E+00  0.00000000E+00  0.00000000E+00
  0.00000000E+00  0.00000000E+00  0.00000000E+00
  0.00000000E+00  0.00000000E+00  0.00000000E+00
  0.00000000E+00  0.00000000E+00  0.00000000E+00
  0.00000000E+00  0.00000000E+00  0.00000000E+00
  0.00000000E+00  0.00000000E+00  0.00000000E+00
  0.00000000E+00  0.00000000E+00  0.00000000E+00
  0.00000000E+00  0.00000000E+00  0.00000000E+00
  0.00000000E+00  0.00000000E+00  0.00000000E+00
  0.00000000E+00  0.00000000E+00  0.00000000E+00
  0.00000000E+00  0.00000000E+00  0.00000000E+00
  0.00000000E+00  0.00000000E+00  0.00000000E+00
  0.00000000E+00  0.00000000E+00  0.00000000E+00
  0.00000000E+00  0.00000000E+00  0.00000000E+00
  0.00000000E+00  0.00000000E+00  0.00000000E+00
  0.00000000E+00  0.00000000E+00  0.00000000E+00
  0.00000000E+00  0.00000000E+00  0.00000000E+00
  0.00000000E+00  0.00000000E+00  0.00000000E+00
  0.00000000E+00  0.00000000E+00  0.00000000E+00
  0.00000000E+00  0.00000000E+00  0.00000000E+00
  0.00000000E+00  0.00000000E+00  0.00000000E+00
  0.00000000E+00  0.00000000E+00  0.00000000E+00
  0.00000000E+00  0.00000000E+00  0.00000000E+00
  0.00000000E+00  0.00000000E+00  0.00000000E+00
  0.00000000E+00  0.00000000E+00  0.00000000E+00
  0.00000000E+00  0.00000000E+00  0.00000000E+00
  0.00000000E+00  0.00000000E+00  0.00000000E+00
  0.00000000E+00  0.00000000E+00  0.00000000E+00
  0.00000000E+00  0.00000000E+00  0.00000000E+00
  0.00000000E+00  0.00000000E+00  0.00000000E+00
  0.00000000E+00  0.00000000E+00  0.00000000E+00
  0.00000000E+00  0.00000000E+00  0.00000000E+00
  0.00000000E+00  0.00000000E+00  0.00000000E+00
  0.00000000E+00  0.00000000E+00  0.00000000E+00
  0.00000000E+00  0.00000000E+00  0.00000000E+00
  0.00000000E+00  0.00000000E+00  0.00000000E+00
  0.00000000E+00  0.00000000E+00  0.00000000E+00
  0.00000000E+00  0.00000000E+00  0.00000000E+00
  0.00000000E+00  0.00000000E+00  0.00000000E+00
  0.00000000E+00  0.00000000E+00  0.00000000E+00
  0.00000000E+00  0.00000000E+00  0.00000000E+00
  0.00000000E+00  0.00000000E+00  0.00000000E+00
  0.00000000E+00  0.00000000E+00  0.00000000E+00
  0.00000000E+00  0.00000000E+00  0.00000000E+00
  0.00000000E+00  0.00000000E+00  0.00000000E+00
  0.00000000E+00  0.00000000E+00  0.00000000E+00
  0.00000000E+00  0.00000000E+00  0.00000000E+00
  0.00000000E+00  0.00000000E+00  0.00000000E+00
  0.00000000E+00  0.00000000E+00  0.00000000E+00
  0.00000000E+00  0.00000000E+00  0.00000000E+00
