Ir  O  H 
 1.0000000000000000
     9.5301187200000008    0.0000000000000000    0.0000000000000000
     0.0000000000000000   12.7429519599999992    0.0000000000000000
     0.0000000000000000    0.0000000000000000   29.9954083400000009
 Ir  O   H  
  48  97   1
Selective dynamics
Cartesian
  2.7888561076494534  1.5600868590762871  1.2190970821268596   F   F   F
  2.7888561076494534  4.7458248490762864  4.4048353132596265   F   F   F
  2.7900878076325792  1.5628641976401612  7.6161979340169434   T   T   T
  2.7929253018336526  4.7493705113752007 10.7414152369367351   T   T   T
  1.2005030511836066  4.7458248490762864  1.2190970821268596   F   F   F
  1.2005030511836066  1.5600868590762871  4.4048353132596265   F   F   F
  1.2012075084395435  4.7471301998198401  7.5981240102644172   T   T   T
  1.2026263010545528  1.5642008246744268 10.8374317380937271   T   T   T
  5.9655624111836065  1.5600868590762871  1.2190970821268596   F   F   F
  5.9655624111836065  4.7458248490762864  4.4048353132596265   F   F   F
  5.9666248083715407  1.5587529978192709  7.6159406864852599   T   T   T
  5.9668236186111638  4.7493721798759001 10.8413421879204641   T   T   T
  4.3772092594165644  4.7458248490762864  1.2190970821268596   F   F   F
  4.3772092594165644  1.5600868590762871  4.4048353132596265   F   F   F
  4.3934047307824180  4.7469919872456074  7.6078017152382698   T   T   T
  4.3792027479661240  1.5636597575961941 10.8358779685260380   T   T   T
  9.1422686194165639  1.5600868590762871  1.2190970821268596   F   F   F
  9.1422686194165639  4.7458248490762864  4.4048353132596265   F   F   F
  9.1429568849655816  1.5628553970725980  7.6165692217114893   T   T   T
  9.1455939569373452  4.7494636993200574 10.7427750941879143   T   T   T
  7.5539154676494542  4.7458248490762864  1.2190970821268596   F   F   F
  7.5539154676494542  1.5600868590762871  4.4048353132596265   F   F   F
  7.5400356792467758  4.7472258298494587  7.6083253265295676   T   T   T
  7.5558105666268300  1.5626351715788831 10.8368390409033228   T   T   T
  2.7888561076494534  7.9315628390762862  1.2190970821268596   F   F   F
  2.7888561076494534 11.1173008290762869  4.4048353132596265   F   F   F
  2.7901715870890618  7.9314852815332673  7.6162012574737661   T   T   T
  2.7903702326741748 11.1210568299915202 10.7528341072572147   T   T   T
  1.2005030511836066 11.1173008290762869  1.2190970821268596   F   F   F
  1.2005030511836066  7.9315628390762862  4.4048353132596265   F   F   F
  1.2015153475895219 11.1186420955675871  7.6047532961827997   T   T   T
  1.2028011265731813  7.9347475447544262 10.8374739766209611   T   T   T
  5.9655624111836065  7.9315628390762862  1.2190970821268596   F   F   F
  5.9655624111836065 11.1173008290762869  4.4048353132596265   F   F   F
  5.9667080629394569  7.9355865547536197  7.6158081801203199   T   T   T
  5.9677848965584825 11.1209466150122100 10.7560916372754072   T   T   T
  4.3772092594165644 11.1173008290762869  1.2190970821268596   F   F   F
  4.3772092594165644  7.9315628390762862  4.4048353132596265   F   F   F
  4.3776010696883310 11.1186048962547019  7.6053297591815268   T   T   T
  4.3794422031618829  7.9353124642026067 10.8355283113457315   T   T   T
  9.1422686194165639  7.9315628390762862  1.2190970821268596   F   F   F
  9.1422686194165639 11.1173008290762869  4.4048353132596265   F   F   F
  9.1431165837602659  7.9314935117232386  7.6165130011801265   T   T   T
  9.1452458313616241 11.1210104946806201 10.7522689068311497   T   T   T
  7.5539154676494542 11.1173008290762869  1.2190970821268596   F   F   F
  7.5539154676494542  7.9315628390762862  4.4048353132596265   F   F   F
  7.5553954514530162 11.1184570737717632  7.6051753262415218   T   T   T
  7.5560650439454529  7.9360759816996618 10.8369478297847284   T   T   T
  1.2005030511836066  2.7791840472187124  1.2190970821268596   F   F   F
  1.2005030511836066  5.9649220372187113  4.4048353132596265   F   F   F
  1.2014351157219261  2.7831194337518714  7.6081518459234854   T   T   T
  1.2038418641708772  5.9660900003951420 10.8355214500165502   T   T   T
  1.2005030511836066  0.3409896709337700  1.2190970821268596   F   F   F
  1.2005030511836066  3.5267276609337697  4.4048353132596265   F   F   F
  1.2013509009737873  0.3424361892885636  7.6154692841353873   T   T   T
  1.2037231692891350  3.5327635255584058 10.8376383832213676   T   T   T
  2.7888561076494534  4.7458248490762864  2.4381944642078266   F   F   F
  2.7888561076494534  1.5600868590762871  5.6239323953864897   F   F   F
  2.7944531515792379  4.7462047963194296  8.8198593889006691   T   T   T
  2.7924331029966600  1.5602808734440841 12.0340917549523176   T   T   T
  2.7888561076494534  4.7458248490762864  0.0000000000000000   F   F   F
  2.7888561076494534  1.5600868590762871  3.1857379311786600   F   F   F
  2.7945389749607896  4.7472753806098540  6.3791589536982078   T   T   T
  2.7904770109708168  1.5664719617239860  9.5882285971859282   T   T   T
  4.3772092594165644  2.7791840472187124  1.2190970821268596   F   F   F
  4.3772092594165644  5.9649220372187113  4.4048353132596265   F   F   F
  4.3812036391003355  2.7808324249494816  7.6069273764494598   T   T   T
  4.3747936086862627  5.9702055165843708 10.8187760705846525   T   T   T
  4.3772092594165644  0.3409896709337700  1.2190970821268596   F   F   F
  4.3772092594165644  3.5267276609337697  4.4048353132596265   F   F   F
  4.3775663726343179  0.3405340742283859  7.6159780898198335   T   T   T
  4.3740429373029190  3.5283962638905795 10.8239274115153243   T   T   T
  5.9655624111836065  4.7458248490762864  2.4381944642078266   F   F   F
  5.9655624111836065  1.5600868590762871  5.6239323953864897   F   F   F
  5.9671071065328336  4.7461744742015526  8.8417954500417508   T   T   T
  5.9674714703385625  1.5391294721694593 12.0288502597626596   T   T   T
  5.9655624111836065  4.7458248490762864  0.0000000000000000   F   F   F
  5.9655624111836065  1.5600868590762871  3.1857379311786600   F   F   F
  5.9666057904723244  4.7467164949445673  6.3737041429288279   T   T   T
  5.9677484829436960  1.5628715264588151  9.5872131768518472   T   T   T
  7.5539154676494542  2.7791840472187124  1.2190970821268596   F   F   F
  7.5539154676494542  5.9649220372187113  4.4048353132596265   F   F   F
  7.5519836270324978  2.7808668018411851  7.6076854282667412   T   T   T
  7.5602889545056300  5.9682639661439501 10.8329374199367745   T   T   T
  7.5539154676494542  0.3409896709337700  1.2190970821268596   F   F   F
  7.5539154676494542  3.5267276609337697  4.4048353132596265   F   F   F
  7.5556815992403035  0.3404428978685232  7.6168708121506867   T   T   T
  7.5596967120277547  3.5306120477254361 10.8337796737329413   T   T   T
  9.1422686194165639  4.7458248490762864  2.4381944642078266   F   F   F
  9.1422686194165639  1.5600868590762871  5.6239323953864897   F   F   F
  9.1384290377868922  4.7439536363716819  8.8205953358902374   T   T   T
  9.1434898711704804  1.5601597456870822 12.0344574237632482   T   T   T
  9.1422686194165639  4.7458248490762864  0.0000000000000000   F   F   F
  9.1422686194165639  1.5600868590762871  3.1857379311786600   F   F   F
  9.1375430619988389  4.7468468355813069  6.3794689948910328   T   T   T
  9.1439643429303690  1.5669122815262810  9.5886563768038222   T   T   T
  1.2005030511836066  9.1506600272187129  1.2190970821268596   F   F   F
  1.2005030511836066 12.3363980172187127  4.4048353132596265   F   F   F
  1.2015823749361911  9.1517028811980161  7.6135519537339524   T   T   T
  1.2024009885876190 12.3398874059449692 10.8448604504909341   T   T   T
  1.2005030511836066  6.7124656509337699  1.2190970821268596   F   F   F
  1.2005030511836066  9.8982036409337706  4.4048353132596265   F   F   F
  1.2014522230217475  6.7109697340951362  7.6104127865394151   T   T   T
  1.2025918844957870  9.9020489274024346 10.8475565374765264   T   T   T
  2.7888561076494534 11.1173008290762869  2.4381944642078266   F   F   F
  2.7888561076494534  7.9315628390762862  5.6239323953864897   F   F   F
  2.7896844598171664 11.1169280505720334  8.8289255250904759   T   T   T
  2.7926188072220430  7.9376916182683885 12.0338755034354410   T   T   T
  2.7888561076494534 11.1173008290762869  0.0000000000000000   F   F   F
  2.7888561076494534  7.9315628390762862  3.1857379311786600   F   F   F
  2.7895780247547437 11.1190863623025997  6.3749307134076822   T   T   T
  2.7905524438200309  7.9324916766713809  9.5881956622012776   T   T   T
  4.3772092594165644  9.1506600272187129  1.2190970821268596   F   F   F
  4.3772092594165644 12.3363980172187127  4.4048353132596265   F   F   F
  4.3774210335219372  9.1536087840928282  7.6139672326509427   T   T   T
  4.3792273175783096 12.3397066172969865 10.8399484973603162   T   T   T
  4.3772092594165644  6.7124656509337699  1.2190970821268596   F   F   F
  4.3772092594165644  9.8982036409337706  4.4048353132596265   F   F   F
  4.3813978252648136  6.7132712094880720  7.6089264282683740   T   T   T
  4.3789639191821426  9.9022923541220109 10.8427166153609154   T   T   T
  5.9655624111836065 11.1173008290762869  2.4381944642078266   F   F   F
  5.9655624111836065  7.9315628390762862  5.6239323953864897   F   F   F
  5.9666243111772230 11.1141592626170453  8.8307145673112810   T   T   T
  5.9675973410581520  7.9585350696446353 12.0287656483057894   T   T   T
  5.9655624111836065 11.1173008290762869  0.0000000000000000   F   F   F
  5.9655624111836065  7.9315628390762862  3.1857379311786600   F   F   F
  5.9662813078457386 11.1184085824442427  6.3756868603687034   T   T   T
  5.9682551064741620  7.9350938494755585  9.5870767716963297   T   T   T
  7.5539154676494542  9.1506600272187129  1.2190970821268596   F   F   F
  7.5539154676494542 12.3363980172187127  4.4048353132596265   F   F   F
  7.5557434950764879  9.1534738515909968  7.6137035816828771   T   T   T
  7.5566072796125487 12.3392584109331587 10.8400447055665445   T   T   T
  7.5539154676494542  6.7124656509337699  1.2190970821268596   F   F   F
  7.5539154676494542  9.8982036409337706  4.4048353132596265   F   F   F
  7.5522591102488477  6.7134319765079482  7.6096414073405771   T   T   T
  7.5567683316451593  9.9024651700544464 10.8428438948544450   T   T   T
  9.1422686194165639 11.1173008290762869  2.4381944642078266   F   F   F
  9.1422686194165639  7.9315628390762862  5.6239323953864897   F   F   F
  9.1436463172161435 11.1142160762697220  8.8283967368633220   T   T   T
  9.1436364947932987  7.9356185041409031 12.0346226140003125   T   T   T
  9.1422686194165639 11.1173008290762869  0.0000000000000000   F   F   F
  9.1422686194165639  7.9315628390762862  3.1857379311786600   F   F   F
  9.1432257200811797 11.1184735129489507  6.3748060069526318   T   T   T
  9.1441526205059187  7.9308763981573778  9.5886930076272137   T   T   T
  5.8852513740585763  4.7517312195949764 12.7854579550696936   T   T   T
  6.7870864375653737  4.7843408869958921 13.1630818226090813   T   T   T
