Ru  O  H 
 1.0000000000000000
     9.3340239999999994    0.0000000000000000    0.0000000000000000
     0.0000000000000000   12.6784260000000000    0.0000000000000000
     0.0000000000000000    0.0000000000000000   29.9755059999999993
 Ru  O   H  
  48  97   1
Selective dynamics
Cartesian
  2.7314714472640156  4.7217881599020224  1.2333421943700060   F   F   F
  2.7314714472640156  1.5521816599020228  4.4029521988099249   F   F   F
  2.7317923187045485  4.7218237832935070  7.6065789900839933   T   T   T
  2.7315471050633704  1.5477653034993455 10.6757838048278337   T   T   T
  1.1757976692559795  1.5521816599020228  1.2333421943700060   F   F   F
  1.1757976692559795  4.7217881599020224  4.4029521988099249   F   F   F
  1.1748966404047303  1.5506789746658785  7.5736612976872166   T   T   T
  1.1742040656278430  4.7132485734275171 10.8812672589650727   T   T   T
  5.8428096692559786  4.7217881599020224  1.2333421943700060   F   F   F
  5.8428096692559786  1.5521816599020228  4.4029521988099249   F   F   F
  5.8420943219797348  4.7203321707115062  7.6076747104150204   T   T   T
  5.8419713900029793  1.5477605231736851 10.6732145294797842   T   T   T
  4.2871452252719857  1.5521816599020228  1.2333421943700060   F   F   F
  4.2871452252719857  4.7217881599020224  4.4029521988099249   F   F   F
  4.2861030159591724  1.5506203568843047  7.5728815261953990   T   T   T
  4.2802141019124447  4.7211650115354429 10.8643762788857874   T   T   T
  8.9541572252719845  4.7217881599020224  1.2333421943700060   F   F   F
  8.9541572252719845  1.5521816599020228  4.4029521988099249   F   F   F
  8.9525468368057943  4.7219034854160977  7.6069148572564282   T   T   T
  8.9513227597183018  1.5478696199514304 10.6757532772405206   T   T   T
  7.3984834472640149  1.5521816599020228  1.2333421943700060   F   F   F
  7.3984834472640149  4.7217881599020224  4.4029521988099249   F   F   F
  7.3979589129932073  1.5510106019138805  7.5727658176855988   T   T   T
  7.4019564401554527  4.7229587068228955 10.8631198974336485   T   T   T
  2.7314714472640156 11.0610011599020233  1.2333421943700060   F   F   F
  2.7314714472640156  7.8913946599020237  4.4029521988099249   F   F   F
  2.7315892841176073 11.0580147701890645  7.6066007538093086   T   T   T
  2.7224244729509270  7.8871801655684637 10.6473988159274295   T   T   T
  1.1757976692559795  7.8913946599020237  1.2333421943700060   F   F   F
  1.1757976692559795 11.0610011599020233  4.4029521988099249   F   F   F
  1.1754530715277269  7.8897051671301810  7.5567598551201982   T   T   T
  1.1739321376047693 11.0604580161923511 10.8812873168026218   T   T   T
  5.8428096692559786 11.0610011599020233  1.2333421943700060   F   F   F
  5.8428096692559786  7.8913946599020237  4.4029521988099249   F   F   F
  5.8421138351147768 11.0600339826474929  7.6076709068456267   T   T   T
  5.8411121382636049  7.8870842026983832 10.8140249245146425   T   T   T
  4.2871452252719857  7.8913946599020237  1.2333421943700060   F   F   F
  4.2871452252719857 11.0610011599020233  4.4029521988099249   F   F   F
  4.3051777408719056  7.8900586738604446  7.5831655990576419   T   T   T
  4.2799892166111286 11.0524979254125313 10.8642518677782451   T   T   T
  8.9541572252719845 11.0610011599020233  1.2333421943700060   F   F   F
  8.9541572252719845  7.8913946599020237  4.4029521988099249   F   F   F
  8.9525733782381511 11.0582821260370920  7.6068207300860458   T   T   T
  8.9570092818879967  7.8869351875629521 10.6462160707722564   T   T   T
  7.3984834472640149  7.8913946599020237  1.2333421943700060   F   F   F
  7.3984834472640149 11.0610011599020233  4.4029521988099249   F   F   F
  7.3790224262803488  7.8901543732304091  7.5825312011690986   T   T   T
  7.4018039401110043 11.0508575565664824 10.8629311455303998   T   T   T
  1.1757976692559795  5.9551327627560280  1.2333421943700060   F   F   F
  1.1757976692559795  2.7855262627560280  4.4029521988099249   F   F   F
  1.1750211109509281  5.9478899861891117  7.5897994281811210   T   T   T
  1.1744223381262482  2.7526797930777800 10.7964818556154345   T   T   T
  1.1757976692559795  3.4884562354739872  1.2333421943700060   F   F   F
  1.1757976692559795  0.3188497354739873  4.4029521988099249   F   F   F
  1.1750873726253681  3.4930928267828700  7.5908073589079512   T   T   T
  1.1742971921110130  0.3426834337918658 10.7947232067347993   T   T   T
  2.7314714472640156  1.5521816599020228  2.4666843887400121   F   F   F
  2.7314714472640156  4.7217881599020224  5.6362943931799308   F   F   F
  2.7305696809430064  1.5502153404873291  8.8069913814866183   T   T   T
  2.7256485021243657  4.7091331335574660 11.9831056433449348   T   T   T
  2.7314714472640156  1.5521816599020228  0.0000000000000000   F   F   F
  2.7314714472640156  4.7217881599020224  3.1696100044399187   F   F   F
  2.7303659007055274  1.5504712406861900  6.3439509104158525   T   T   T
  2.7305376934221610  4.7177662784278951  9.5567749786482565   T   T   T
  4.2871452252719857  5.9551327627560280  1.2333421943700060   F   F   F
  4.2871452252719857  2.7855262627560280  4.4029521988099249   F   F   F
  4.2891723787940110  5.9490712825049359  7.5968831508142305   T   T   T
  4.2864380494059455  2.7553727557942298 10.7949241611240332   T   T   T
  4.2871452252719857  3.4884562354739872  1.2333421943700060   F   F   F
  4.2871452252719857  0.3188497354739873  4.4029521988099249   F   F   F
  4.2855284518114312  3.4920981424397062  7.5935949109315208   T   T   T
  4.2866095449516504  0.3399754552518041 10.7932900558838565   T   T   T
  5.8428096692559786  1.5521816599020228  2.4666843887400121   F   F   F
  5.8428096692559786  4.7217881599020224  5.6362943931799308   F   F   F
  5.8417067919762644  1.5506058732476184  8.8058851468351751   T   T   T
  5.8412629256115771  4.7219844746285151 11.9504274313925425   T   T   T
  5.8428096692559786  1.5521816599020228  0.0000000000000000   F   F   F
  5.8428096692559786  4.7217881599020224  3.1696100044399187   F   F   F
  5.8421580703122871  1.5508043288897624  6.3432114099531161   T   T   T
  5.8403545841437694  4.7151152817259323  9.5573425491919366   T   T   T
  7.3984834472640149  5.9551327627560280  1.2333421943700060   F   F   F
  7.3984834472640149  2.7855262627560280  4.4029521988099249   F   F   F
  7.3951010961201709  5.9493566276543088  7.5979485600127870   T   T   T
  7.3969169315643564  2.7558770742365533 10.7955226282266086   T   T   T
  7.3984834472640149  3.4884562354739872  1.2333421943700060   F   F   F
  7.3984834472640149  0.3188497354739873  4.4029521988099249   F   F   F
  7.3988489968502575  3.4925534316852729  7.5932459549082720   T   T   T
  7.3969091312201032  0.3395022904278763 10.7934154841650223   T   T   T
  8.9541572252719845  1.5521816599020228  2.4666843887400121   F   F   F
  8.9541572252719845  4.7217881599020224  5.6362943931799308   F   F   F
  8.9534449566765755  1.5508433207134926  8.8068744615837407   T   T   T
  8.9570535400997144  4.7095909540257379 11.9820907442103533   T   T   T
  8.9541572252719845  1.5521816599020228  0.0000000000000000   F   F   F
  8.9541572252719845  4.7217881599020224  3.1696100044399187   F   F   F
  8.9539957674095731  1.5508574513767421  6.3437122542217086   T   T   T
  8.9529416173181051  4.7168836176047915  9.5566971045387010   T   T   T
  1.1757976692559795 12.2943457627560271  1.2333421943700060   F   F   F
  1.1757976692559795  9.1247392627560284  4.4029521988099249   F   F   F
  1.1749308046401354 12.2869898150115784  7.5922105261857409   T   T   T
  1.1729988895120855  9.0983116057087088 10.7842197971878129   T   T   T
  1.1757976692559795  9.8276692354739872  1.2333421943700060   F   F   F
  1.1757976692559795  6.6580627354739867  4.4029521988099249   F   F   F
  1.1749549979240077  9.8319362538245816  7.5883824625161855   T   T   T
  1.1729921713603499  6.6756788168658279 10.7828992491028526   T   T   T
  2.7314714472640156  7.8913946599020237  2.4666843887400121   F   F   F
  2.7314714472640156 11.0610011599020233  5.6362943931799308   F   F   F
  2.7360577005004707  7.8892304276776200  8.7859997681858921   T   T   T
  2.7253935947346659 11.0638372188242808 11.9830045529654790   T   T   T
  2.7314714472640156  7.8913946599020237  0.0000000000000000   F   F   F
  2.7314714472640156 11.0610011599020233  3.1696100044399187   F   F   F
  2.7364823178388700  7.8897120656333888  6.3411372731127145   T   T   T
  2.7302704966635436 11.0562343872190478  9.5567560313022639   T   T   T
  4.2871452252719857 12.2943457627560271  1.2333421943700060   F   F   F
  4.2871452252719857  9.1247392627560284  4.4029521988099249   F   F   F
  4.2854789191438334 12.2880111855942840  7.5946702219450177   T   T   T
  4.2706041077263341  9.0945582739025301 10.7902059129545194   T   T   T
  4.2871452252719857  9.8276692354739872  1.2333421943700060   F   F   F
  4.2871452252719857  6.6580627354739867  4.4029521988099249   F   F   F
  4.2889361090324183  9.8312183343780060  7.5958388593082882   T   T   T
  4.2707239619996624  6.6795554520396170 10.7891968398546751   T   T   T
  5.8428096692559786  7.8913946599020237  2.4666843887400121   F   F   F
  5.8428096692559786 11.0610011599020233  5.6362943931799308   F   F   F
  5.8401099014173408  7.8896888860296013  8.8585654465125305   T   T   T
  5.8411520019596717 11.0519538822129242 11.9502210788633558   T   T   T
  5.8428096692559786  7.8913946599020237  0.0000000000000000   F   F   F
  5.8428096692559786 11.0610011599020233  3.1696100044399187   F   F   F
  5.8420492638593862  7.8903094428048393  6.3444585831844131   T   T   T
  5.8402117276600292 11.0594517024815424  9.5573809845314859   T   T   T
  7.3984834472640149 12.2943457627560271  1.2333421943700060   F   F   F
  7.3984834472640149  9.1247392627560284  4.4029521988099249   F   F   F
  7.3988788157011163 12.2881050679161028  7.5955909125798771   T   T   T
  7.4134123732878816  9.0964978048058107 10.7808967235265278   T   T   T
  7.3984834472640149  9.8276692354739872  1.2333421943700060   F   F   F
  7.3984834472640149  6.6580627354739867  4.4029521988099249   F   F   F
  7.3952179434990031  9.8312502470270022  7.5958542470079964   T   T   T
  7.4127739186862476  6.6773138749921799 10.7797351779606867   T   T   T
  8.9541572252719845  7.8913946599020237  2.4666843887400121   F   F   F
  8.9541572252719845 11.0610011599020233  5.6362943931799308   F   F   F
  8.9492498909022977  7.8895180316973592  8.7846979759932644   T   T   T
  8.9567694729298868 11.0645528522623895 11.9821768272682814   T   T   T
  8.9541572252719845  7.8913946599020237  0.0000000000000000   F   F   F
  8.9541572252719845 11.0610011599020233  3.1696100044399187   F   F   F
  8.9494748604075820  7.8900026390308549  6.3405762054277899   T   T   T
  8.9529330133455005 11.0578032339841528  9.5565742272076744   T   T   T
  5.9068548189545389  7.8875155463214073 12.7156827326316790   T   T   T
  5.0231299410308665  7.8906652408037257 13.1400340278180874   T   T   T
