Ru O  H                                 
   1.00000000000000     
     9.3340239999999994    0.0000000000000000    0.0000000000000000
     0.0000000000000000   12.6784260000000000    0.0000000000000000
     0.0000000000000000    0.0000000000000000   29.9755059999999993
   Ru   O    H 
    48    98     1
Selective dynamics
Direct
  0.2926360000000017  0.3724270000000018  0.0411450000000002   F   F   F
  0.2926360000000017  0.1224270000000018  0.1468849999999975   F   F   F
  0.2921113108306986  0.3720582170001863  0.2542316943959402   T   T   T
  0.2939913103552064  0.1213211970950553  0.3610109780754307   T   T   T
  0.1259689999999978  0.1224270000000018  0.0411450000000002   F   F   F
  0.1259689999999978  0.3724270000000018  0.1468849999999975   F   F   F
  0.1275511971834721  0.1219611627258486  0.2528083768340580   T   T   T
  0.1234045023457239  0.3708435246688773  0.3635149605699273   T   T   T
  0.6259689999999978  0.3724270000000018  0.0411450000000002   F   F   F
  0.6259689999999978  0.1224270000000018  0.1468849999999975   F   F   F
  0.6259399747269004  0.3719427674296512  0.2542682783453116   T   T   T
  0.6257892192382338  0.1214636571567858  0.3553690284861737   T   T   T
  0.4593029999999985  0.1224270000000018  0.0411450000000002   F   F   F
  0.4593029999999985  0.3724270000000018  0.1468849999999975   F   F   F
  0.4571325297080542  0.1219408629240981  0.2531499762532658   T   T   T
  0.4593224853422896  0.3709849133615513  0.3624241427505926   T   T   T
  0.9593029999999985  0.3724270000000018  0.0411450000000002   F   F   F
  0.9593029999999985  0.1224270000000018  0.1468849999999975   F   F   F
  0.9593060839695916  0.3719666896478607  0.2539983695181544   T   T   T
  0.9590848503717433  0.1215413206422667  0.3549729713739053   T   T   T
  0.7926360000000017  0.1224270000000018  0.0411450000000002   F   F   F
  0.7926360000000017  0.3724270000000018  0.1468849999999975   F   F   F
  0.7921401272706303  0.1221464259017888  0.2518120764266180   T   T   T
  0.7945550636152492  0.3716648194010957  0.3639450299575379   T   T   T
  0.2926360000000017  0.8724270000000018  0.0411450000000002   F   F   F
  0.2926360000000017  0.6224270000000018  0.1468849999999975   F   F   F
  0.2920449657252018  0.8719575562640597  0.2542048263696033   T   T   T
  0.2920387008290897  0.6215616109249538  0.3559820563918694   T   T   T
  0.1259689999999978  0.6224270000000018  0.0411450000000002   F   F   F
  0.1259689999999978  0.8724270000000018  0.1468849999999975   F   F   F
  0.1257064521439424  0.6220461824108052  0.2524414516527932   T   T   T
  0.1233495611229070  0.8722791540997249  0.3634928147876485   T   T   T
  0.6259689999999978  0.8724270000000018  0.0411450000000002   F   F   F
  0.6259689999999978  0.6224270000000018  0.1468849999999975   F   F   F
  0.6259805724889600  0.8721189723260687  0.2542497898074566   T   T   T
  0.6253985594238634  0.6214784514463484  0.3565306166537594   T   T   T
  0.4593029999999985  0.6224270000000018  0.0411450000000002   F   F   F
  0.4593029999999985  0.8724270000000018  0.1468849999999975   F   F   F
  0.4592008072638429  0.6220435793550522  0.2525783830998808   T   T   T
  0.4592520302261540  0.8720107378933645  0.3622273109933815   T   T   T
  0.9593029999999985  0.8724270000000018  0.0411450000000002   F   F   F
  0.9593029999999985  0.6224270000000018  0.1468849999999975   F   F   F
  0.9592182915872898  0.8721010768852261  0.2540184868407038   T   T   T
  0.9592421722421764  0.6215222604364360  0.3565152260386052   T   T   T
  0.7926360000000017  0.6224270000000018  0.0411450000000002   F   F   F
  0.7926360000000017  0.8724270000000018  0.1468849999999975   F   F   F
  0.7924964531397921  0.6220495973644815  0.2526135716426696   T   T   T
  0.7944432226728232  0.8713605244925354  0.3639482237795464   T   T   T
  0.1259689999999978  0.4697060000000022  0.0411450000000002   F   F   F
  0.1259689999999978  0.2197060000000022  0.1468849999999975   F   F   F
  0.1257912251919083  0.4685611018465897  0.2536525329125213   T   T   T
  0.1233429711679499  0.2161327869004427  0.3612785912682020   T   T   T
  0.1259689999999978  0.2751489999999990  0.0411450000000002   F   F   F
  0.1259689999999978  0.0251489999999990  0.1468849999999975   F   F   F
  0.1262490172881441  0.2754873471597827  0.2535815191874817   T   T   T
  0.1225050998017159  0.0266400650701928  0.3607383061225610   T   T   T
  0.2926360000000017  0.1224270000000018  0.0822900000000004   F   F   F
  0.2926360000000017  0.3724270000000018  0.1880299999999977   F   F   F
  0.2913628350055699  0.1225047022005386  0.2955882611848970   T   T   T
  0.2908592828529734  0.3712512687011473  0.3986232670952678   T   T   T
  0.2926360000000017  0.1224270000000018  0.0000000000000000   F   F   F
  0.2926360000000017  0.3724270000000018  0.1057399999999973   F   F   F
  0.2928734258796785  0.1219168246055286  0.2116998519698286   T   T   T
  0.2920986764026465  0.3719968861466110  0.3191927826615881   T   T   T
  0.4593029999999985  0.4697060000000022  0.0411450000000002   F   F   F
  0.4593029999999985  0.2197060000000022  0.1468849999999975   F   F   F
  0.4593258220648644  0.4678114028375218  0.2539103097464666   T   T   T
  0.4613217580091149  0.2167512722474678  0.3604436155204543   T   T   T
  0.4593029999999985  0.2751489999999990  0.0411450000000002   F   F   F
  0.4593029999999985  0.0251489999999990  0.1468849999999975   F   F   F
  0.4589419074401166  0.2762546164082188  0.2538903702572230   T   T   T
  0.4613297738376567  0.0259890833023976  0.3593436714592980   T   T   T
  0.6259689999999978  0.1224270000000018  0.0822900000000004   F   F   F
  0.6259689999999978  0.3724270000000018  0.1880299999999977   F   F   F
  0.6262055379170799  0.1222838200665505  0.2928515734026754   T   T   T
  0.6273673883034951  0.3722477563943519  0.3993241122050288   T   T   T
  0.6259689999999978  0.1224270000000018  0.0000000000000000   F   F   F
  0.6259689999999978  0.3724270000000018  0.1057399999999973   F   F   F
  0.6242634753251145  0.1220636278810783  0.2115295313479751   T   T   T
  0.6264052345400049  0.3717356491434662  0.3192905574382371   T   T   T
  0.7926360000000017  0.4697060000000022  0.0411450000000002   F   F   F
  0.7926360000000017  0.2197060000000022  0.1468849999999975   F   F   F
  0.7922079297396559  0.4683380356520852  0.2535229083769817   T   T   T
  0.7933375667368521  0.2158124516956986  0.3618807138573341   T   T   T
  0.7926360000000017  0.2751489999999990  0.0411450000000002   F   F   F
  0.7926360000000017  0.0251489999999990  0.1468849999999975   F   F   F
  0.7922685333364607  0.2757319805135495  0.2532109312977124   T   T   T
  0.7930916738073009  0.0271844731118271  0.3616535577359488   T   T   T
  0.9593029999999985  0.1224270000000018  0.0822900000000004   F   F   F
  0.9593029999999985  0.3724270000000018  0.1880299999999977   F   F   F
  0.9592373739385722  0.1221854877849928  0.2925943462218351   T   T   T
  0.9589244598833280  0.3723538860069144  0.4022527500927140   T   T   T
  0.9593029999999985  0.1224270000000018  0.0000000000000000   F   F   F
  0.9593029999999985  0.3724270000000018  0.1057399999999973   F   F   F
  0.9598674917800808  0.1221069368349533  0.2114072111560040   T   T   T
  0.9589619228348187  0.3716465962727685  0.3188708799752542   T   T   T
  0.1259689999999978  0.9697060000000022  0.0411450000000002   F   F   F
  0.1259689999999978  0.7197060000000022  0.1468849999999975   F   F   F
  0.1261627947598339  0.9685466832545753  0.2537598724174134   T   T   T
  0.1251999156615908  0.7160348821308973  0.3625727853601966   T   T   T
  0.1259689999999978  0.7751489999999990  0.0411450000000002   F   F   F
  0.1259689999999978  0.5251489999999990  0.1468849999999975   F   F   F
  0.1257199466388593  0.7754909027402140  0.2534888269374398   T   T   T
  0.1252307027160932  0.5270048526740103  0.3623275858889368   T   T   T
  0.2926360000000017  0.6224270000000018  0.0822900000000004   F   F   F
  0.2926360000000017  0.8724270000000018  0.1880299999999977   F   F   F
  0.2923460659841399  0.6219783784538905  0.2934337345986173   T   T   T
  0.2909131178251916  0.8719767500055094  0.3986474726688802   T   T   T
  0.2926360000000017  0.6224270000000018  0.0000000000000000   F   F   F
  0.2926360000000017  0.8724270000000018  0.1057399999999973   F   F   F
  0.2926928026074553  0.6220726810764371  0.2115586959870625   T   T   T
  0.2917844253313089  0.8708057338331513  0.3191721243691650   T   T   T
  0.4593029999999985  0.9697060000000022  0.0411450000000002   F   F   F
  0.4593029999999985  0.7197060000000022  0.1468849999999975   F   F   F
  0.4589671176299875  0.9677613572412808  0.2540894442610019   T   T   T
  0.4587430068583749  0.7162598023175202  0.3621650232286032   T   T   T
  0.4593029999999985  0.7751489999999990  0.0411450000000002   F   F   F
  0.4593029999999985  0.5251489999999990  0.1468849999999975   F   F   F
  0.4593041118588636  0.7762403921647417  0.2537704998461771   T   T   T
  0.4587050129781752  0.5267812794738648  0.3619624421704802   T   T   T
  0.6259689999999978  0.6224270000000018  0.0822900000000004   F   F   F
  0.6259689999999978  0.8724270000000018  0.1880299999999977   F   F   F
  0.6258891122631145  0.6220882585530039  0.2937585411948342   T   T   T
  0.6271338184465864  0.8713455424483939  0.3993723862622919   T   T   T
  0.6259689999999978  0.6224270000000018  0.0000000000000000   F   F   F
  0.6259689999999978  0.8724270000000018  0.1057399999999973   F   F   F
  0.6258530792103995  0.6220725781647590  0.2116354373398788   T   T   T
  0.6266577386393435  0.8710651649680807  0.3192633278442656   T   T   T
  0.7926360000000017  0.9697060000000022  0.0411450000000002   F   F   F
  0.7926360000000017  0.7197060000000022  0.1468849999999975   F   F   F
  0.7922187929249791  0.9684707002695340  0.2534125342600039   T   T   T
  0.7927643210365889  0.7155161032250756  0.3627404511455962   T   T   T
  0.7926360000000017  0.7751489999999990  0.0411450000000002   F   F   F
  0.7926360000000017  0.5251489999999990  0.1468849999999975   F   F   F
  0.7921986271918212  0.7757544239942702  0.2532946858891738   T   T   T
  0.7928207406082516  0.5274652313450413  0.3624005921979980   T   T   T
  0.9593029999999985  0.6224270000000018  0.0822900000000004   F   F   F
  0.9593029999999985  0.8724270000000018  0.1880299999999977   F   F   F
  0.9589722155719201  0.6220635559917166  0.2937883579766554   T   T   T
  0.9588588895426735  0.8710441210695856  0.4022405378503044   T   T   T
  0.9593029999999985  0.6224270000000018  0.0000000000000000   F   F   F
  0.9593029999999985  0.8724270000000018  0.1057399999999973   F   F   F
  0.9589302016262873  0.6220795499939820  0.2115659578194272   T   T   T
  0.9586845730957523  0.8711649853844518  0.3188697729152438   T   T   T
  0.2927974749657377  0.1123246897598318  0.4244973220684144   T   T   T
  0.4338365087978970  0.1148529658915166  0.4443828868378395   T   T   T
  0.4130666482314449  0.0801815073628798  0.4728784947068010   T   T   T
 
  0.00000000E+00  0.00000000E+00  0.00000000E+00
  0.00000000E+00  0.00000000E+00  0.00000000E+00
  0.00000000E+00  0.00000000E+00  0.00000000E+00
  0.00000000E+00  0.00000000E+00  0.00000000E+00
  0.00000000E+00  0.00000000E+00  0.00000000E+00
  0.00000000E+00  0.00000000E+00  0.00000000E+00
  0.00000000E+00  0.00000000E+00  0.00000000E+00
  0.00000000E+00  0.00000000E+00  0.00000000E+00
  0.00000000E+00  0.00000000E+00  0.00000000E+00
  0.00000000E+00  0.00000000E+00  0.00000000E+00
  0.00000000E+00  0.00000000E+00  0.00000000E+00
  0.00000000E+00  0.00000000E+00  0.00000000E+00
  0.00000000E+00  0.00000000E+00  0.00000000E+00
  0.00000000E+00  0.00000000E+00  0.00000000E+00
  0.00000000E+00  0.00000000E+00  0.00000000E+00
  0.00000000E+00  0.00000000E+00  0.00000000E+00
  0.00000000E+00  0.00000000E+00  0.00000000E+00
  0.00000000E+00  0.00000000E+00  0.00000000E+00
  0.00000000E+00  0.00000000E+00  0.00000000E+00
  0.00000000E+00  0.00000000E+00  0.00000000E+00
  0.00000000E+00  0.00000000E+00  0.00000000E+00
  0.00000000E+00  0.00000000E+00  0.00000000E+00
  0.00000000E+00  0.00000000E+00  0.00000000E+00
  0.00000000E+00  0.00000000E+00  0.00000000E+00
  0.00000000E+00  0.00000000E+00  0.00000000E+00
  0.00000000E+00  0.00000000E+00  0.00000000E+00
  0.00000000E+00  0.00000000E+00  0.00000000E+00
  0.00000000E+00  0.00000000E+00  0.00000000E+00
  0.00000000E+00  0.00000000E+00  0.00000000E+00
  0.00000000E+00  0.00000000E+00  0.00000000E+00
  0.00000000E+00  0.00000000E+00  0.00000000E+00
  0.00000000E+00  0.00000000E+00  0.00000000E+00
  0.00000000E+00  0.00000000E+00  0.00000000E+00
  0.00000000E+00  0.00000000E+00  0.00000000E+00
  0.00000000E+00  0.00000000E+00  0.00000000E+00
  0.00000000E+00  0.00000000E+00  0.00000000E+00
  0.00000000E+00  0.00000000E+00  0.00000000E+00
  0.00000000E+00  0.00000000E+00  0.00000000E+00
  0.00000000E+00  0.00000000E+00  0.00000000E+00
  0.00000000E+00  0.00000000E+00  0.00000000E+00
  0.00000000E+00  0.00000000E+00  0.00000000E+00
  0.00000000E+00  0.00000000E+00  0.00000000E+00
  0.00000000E+00  0.00000000E+00  0.00000000E+00
  0.00000000E+00  0.00000000E+00  0.00000000E+00
  0.00000000E+00  0.00000000E+00  0.00000000E+00
  0.00000000E+00  0.00000000E+00  0.00000000E+00
  0.00000000E+00  0.00000000E+00  0.00000000E+00
  0.00000000E+00  0.00000000E+00  0.00000000E+00
  0.00000000E+00  0.00000000E+00  0.00000000E+00
  0.00000000E+00  0.00000000E+00  0.00000000E+00
  0.00000000E+00  0.00000000E+00  0.00000000E+00
  0.00000000E+00  0.00000000E+00  0.00000000E+00
  0.00000000E+00  0.00000000E+00  0.00000000E+00
  0.00000000E+00  0.00000000E+00  0.00000000E+00
  0.00000000E+00  0.00000000E+00  0.00000000E+00
  0.00000000E+00  0.00000000E+00  0.00000000E+00
  0.00000000E+00  0.00000000E+00  0.00000000E+00
  0.00000000E+00  0.00000000E+00  0.00000000E+00
  0.00000000E+00  0.00000000E+00  0.00000000E+00
  0.00000000E+00  0.00000000E+00  0.00000000E+00
  0.00000000E+00  0.00000000E+00  0.00000000E+00
  0.00000000E+00  0.00000000E+00  0.00000000E+00
  0.00000000E+00  0.00000000E+00  0.00000000E+00
  0.00000000E+00  0.00000000E+00  0.00000000E+00
  0.00000000E+00  0.00000000E+00  0.00000000E+00
  0.00000000E+00  0.00000000E+00  0.00000000E+00
  0.00000000E+00  0.00000000E+00  0.00000000E+00
  0.00000000E+00  0.00000000E+00  0.00000000E+00
  0.00000000E+00  0.00000000E+00  0.00000000E+00
  0.00000000E+00  0.00000000E+00  0.00000000E+00
  0.00000000E+00  0.00000000E+00  0.00000000E+00
  0.00000000E+00  0.00000000E+00  0.00000000E+00
  0.00000000E+00  0.00000000E+00  0.00000000E+00
  0.00000000E+00  0.00000000E+00  0.00000000E+00
  0.00000000E+00  0.00000000E+00  0.00000000E+00
  0.00000000E+00  0.00000000E+00  0.00000000E+00
  0.00000000E+00  0.00000000E+00  0.00000000E+00
  0.00000000E+00  0.00000000E+00  0.00000000E+00
  0.00000000E+00  0.00000000E+00  0.00000000E+00
  0.00000000E+00  0.00000000E+00  0.00000000E+00
  0.00000000E+00  0.00000000E+00  0.00000000E+00
  0.00000000E+00  0.00000000E+00  0.00000000E+00
  0.00000000E+00  0.00000000E+00  0.00000000E+00
  0.00000000E+00  0.00000000E+00  0.00000000E+00
  0.00000000E+00  0.00000000E+00  0.00000000E+00
  0.00000000E+00  0.00000000E+00  0.00000000E+00
  0.00000000E+00  0.00000000E+00  0.00000000E+00
  0.00000000E+00  0.00000000E+00  0.00000000E+00
  0.00000000E+00  0.00000000E+00  0.00000000E+00
  0.00000000E+00  0.00000000E+00  0.00000000E+00
  0.00000000E+00  0.00000000E+00  0.00000000E+00
  0.00000000E+00  0.00000000E+00  0.00000000E+00
  0.00000000E+00  0.00000000E+00  0.00000000E+00
  0.00000000E+00  0.00000000E+00  0.00000000E+00
  0.00000000E+00  0.00000000E+00  0.00000000E+00
  0.00000000E+00  0.00000000E+00  0.00000000E+00
  0.00000000E+00  0.00000000E+00  0.00000000E+00
  0.00000000E+00  0.00000000E+00  0.00000000E+00
  0.00000000E+00  0.00000000E+00  0.00000000E+00
  0.00000000E+00  0.00000000E+00  0.00000000E+00
  0.00000000E+00  0.00000000E+00  0.00000000E+00
  0.00000000E+00  0.00000000E+00  0.00000000E+00
  0.00000000E+00  0.00000000E+00  0.00000000E+00
  0.00000000E+00  0.00000000E+00  0.00000000E+00
  0.00000000E+00  0.00000000E+00  0.00000000E+00
  0.00000000E+00  0.00000000E+00  0.00000000E+00
  0.00000000E+00  0.00000000E+00  0.00000000E+00
  0.00000000E+00  0.00000000E+00  0.00000000E+00
  0.00000000E+00  0.00000000E+00  0.00000000E+00
  0.00000000E+00  0.00000000E+00  0.00000000E+00
  0.00000000E+00  0.00000000E+00  0.00000000E+00
  0.00000000E+00  0.00000000E+00  0.00000000E+00
  0.00000000E+00  0.00000000E+00  0.00000000E+00
  0.00000000E+00  0.00000000E+00  0.00000000E+00
  0.00000000E+00  0.00000000E+00  0.00000000E+00
  0.00000000E+00  0.00000000E+00  0.00000000E+00
  0.00000000E+00  0.00000000E+00  0.00000000E+00
  0.00000000E+00  0.00000000E+00  0.00000000E+00
  0.00000000E+00  0.00000000E+00  0.00000000E+00
  0.00000000E+00  0.00000000E+00  0.00000000E+00
  0.00000000E+00  0.00000000E+00  0.00000000E+00
  0.00000000E+00  0.00000000E+00  0.00000000E+00
  0.00000000E+00  0.00000000E+00  0.00000000E+00
  0.00000000E+00  0.00000000E+00  0.00000000E+00
  0.00000000E+00  0.00000000E+00  0.00000000E+00
  0.00000000E+00  0.00000000E+00  0.00000000E+00
  0.00000000E+00  0.00000000E+00  0.00000000E+00
  0.00000000E+00  0.00000000E+00  0.00000000E+00
  0.00000000E+00  0.00000000E+00  0.00000000E+00
  0.00000000E+00  0.00000000E+00  0.00000000E+00
  0.00000000E+00  0.00000000E+00  0.00000000E+00
  0.00000000E+00  0.00000000E+00  0.00000000E+00
  0.00000000E+00  0.00000000E+00  0.00000000E+00
  0.00000000E+00  0.00000000E+00  0.00000000E+00
  0.00000000E+00  0.00000000E+00  0.00000000E+00
  0.00000000E+00  0.00000000E+00  0.00000000E+00
  0.00000000E+00  0.00000000E+00  0.00000000E+00
  0.00000000E+00  0.00000000E+00  0.00000000E+00
  0.00000000E+00  0.00000000E+00  0.00000000E+00
  0.00000000E+00  0.00000000E+00  0.00000000E+00
  0.00000000E+00  0.00000000E+00  0.00000000E+00
  0.00000000E+00  0.00000000E+00  0.00000000E+00
  0.00000000E+00  0.00000000E+00  0.00000000E+00
  0.00000000E+00  0.00000000E+00  0.00000000E+00
  0.00000000E+00  0.00000000E+00  0.00000000E+00
  0.00000000E+00  0.00000000E+00  0.00000000E+00
  0.00000000E+00  0.00000000E+00  0.00000000E+00
