Converted by xsd2pos.py                 
   1.00000000000000     
     9.3340239999999994    0.0000000000000000    0.0000000000000000
     0.0000000000000000   12.6784260000000000    0.0000000000000000
     0.0000000000000000    0.0000000000000000   29.9755059999999993
   Ru   O    H 
    48   100     1
Direct
  0.2908759501823802  0.3723072775625377  0.0448956071531961
  0.2905972878952919  0.1222962991813412  0.1434855292896879
  0.2902839714023339  0.3719067315075806  0.2553441097541813
  0.2885315237053299  0.1218742421866221  0.3534774289734856
  0.1243081004064572  0.1222731834379284  0.0348273126306001
  0.1238956711258742  0.3722476056203883  0.1488686960056350
  0.1234861655075311  0.1220942282075052  0.2496362199567499
  0.1229174700003972  0.3718914801382752  0.3636345913624917
  0.6242066874437849  0.3722659879541744  0.0448026919125168
  0.6239073550605220  0.1223029350791712  0.1432897703986457
  0.6234592626510487  0.3721328278557423  0.2554263874189459
  0.6230648444658961  0.1219223672234907  0.3595296886779305
  0.4575176676175214  0.1222652186870303  0.0347733703686019
  0.4572550069859932  0.3721590771634848  0.1488623833773058
  0.4593480666062238  0.1221289279155503  0.2507527708453248
  0.4553896017286793  0.3711401962627817  0.3630311150961334
  0.9575477992511185  0.3723119119953003  0.0448827676934773
  0.9572067493693608  0.1223308376786091  0.1434845042105018
  0.9567338383722276  0.3719610633723858  0.2553469559701129
  0.9565332447868072  0.1218851318589588  0.3534993303860158
  0.7909629219579388  0.1222773171260204  0.0347821084097562
  0.7905331757098666  0.3721711967473575  0.1488588547200463
  0.7876266524606509  0.1221036657557003  0.2507779650492238
  0.7900516578928700  0.3707555340305427  0.3628127641781220
  0.2908497406624151  0.8722462775883140  0.0448981406742874
  0.2906481648632145  0.6223071583024600  0.1463111810587475
  0.2903490117341208  0.8722906241303295  0.2553515533283049
  0.2865711999520320  0.6218848163359358  0.3632608006128233
  0.1241804528103353  0.6222800604970810  0.0371994729011267
  0.1239116426626881  0.8723953634581643  0.1488757407411133
  0.1235481171045578  0.6221167492520233  0.2533288331271493
  0.1230103182706853  0.8719038462822595  0.3636466557593573
  0.6242067801852541  0.8722926463289842  0.0448197576717889
  0.6239958260196085  0.6223080641004792  0.1462864981386675
  0.6235255505594157  0.8720757253428919  0.2554416972095766
  0.6198220986252261  0.6218754332410383  0.3632777465275817
  0.4574298094486811  0.6222923355352088  0.0371994896392871
  0.4572800636320868  0.8724550289005921  0.1488694945108501
  0.4569603962648994  0.6220891139626008  0.2532840364830210
  0.4555546567829694  0.8726720870362784  0.3630157194053864
  0.9575281638556888  0.8722621328589889  0.0448880807340765
  0.9573013378076479  0.6223274516983114  0.1463009912575740
  0.9567741653544802  0.8722973480001019  0.2553621858739178
  0.9529926361293685  0.6218711198623618  0.3633082749949443
  0.7908344482853497  0.6222785263548388  0.0372184927813202
  0.7905673283748315  0.8724852826936175  0.1488717880781062
  0.7903315915503506  0.6221172419949202  0.2532903322895730
  0.7901921899554259  0.8729918501158848  0.3628951336283904
  0.1241840454671878  0.4674844675562315  0.0397274018320004
  0.1239171813969101  0.2192744051415896  0.1449400446673650
  0.1235850283579225  0.4691372166722362  0.2545543036679772
  0.1226571846006155  0.2168044309681196  0.3604137178187936
  0.1242258257543508  0.2772559513713860  0.0384753700006920
  0.1238682650219011  0.0253667669399101  0.1449085279653764
  0.1234547834095406  0.2748436016969562  0.2535066405823223
  0.1227310182850243  0.0269329387558638  0.3603812495461808
  0.2908003957977518  0.1222956583894477  0.0787253264096293
  0.2907335784179553  0.3715280201788426  0.1901490436501871
  0.2911089585184783  0.1220528745970651  0.2909020405560259
  0.2889289925065006  0.3717995588443908  0.4005021671893920
  0.2909576160033280  0.1221674090303593 -0.0020925292166367
  0.2905912733963217  0.3728525700857261  0.1075829912109072
  0.2910672619063800  0.1220793968646197  0.2087757763596175
  0.2893381633031483  0.3703501711505586  0.3197506307677648
  0.4575229531075518  0.4674370783125243  0.0396233863904307
  0.4573388812993271  0.2193362912467161  0.1448305634401310
  0.4566276757484277  0.4692564350237612  0.2546756702506229
  0.4538316232952475  0.2165061068360000  0.3602050942907070
  0.4575755542821259  0.2772324405432945  0.0384353479912796
  0.4573510987666341  0.0252640351169675  0.1448015558951259
  0.4570647809349829  0.2749253807560199  0.2538033966881439
  0.4540358243583227  0.0272750617430518  0.3600787612624772
  0.6241606875832353  0.1222954239854363  0.0785755757918585
  0.6238404969178705  0.3715952013880860  0.1901839729097567
  0.6230454792611270  0.1219561923340505  0.2939796922106914
  0.6226493589805887  0.3706525542924956  0.3990751072871361
  0.6242032255679012  0.1221963833939036 -0.0021315701583943
  0.6239458894718706  0.3729136179189079  0.1075474501199462
  0.6236165725922433  0.1221341124606975  0.2088345604512052
  0.6225736500341262  0.3706794431985540  0.3197493515621036
  0.7908424930715288  0.4674488381437540  0.0396604172496184
  0.7904551337404094  0.2193552369509215  0.1448180271712618
  0.7904462847906788  0.4692676980516184  0.2546862595496750
  0.7918834832324319  0.2168705881190267  0.3590720092532464
  0.7908889118794874  0.2772384212575580  0.0384175801570751
  0.7905040179607025  0.0252994477777554  0.1447986124663392
  0.7899092328033128  0.2749517089650455  0.2538562238267062
  0.7918598403115006  0.0269633743990366  0.3593590596225767
  0.9575942741513283  0.1223281610584430  0.0787182547903464
  0.9569397022775454  0.3715612254822072  0.1901480537109927
  0.9560469346027578  0.1220190047074963  0.2909378792990653
  0.9565759677051029  0.3716632222197159  0.4001454476531074
  0.9576310178307398  0.1222063667006515 -0.0020415027629537
  0.9573094009809224  0.3727572636378860  0.1075808136684335
  0.9560579744741212  0.1221584701162933  0.2087804346839560
  0.9566757661124138  0.3706056458496030  0.3197366542817871
  0.1242071625515210  0.9672786594587828  0.0384842338500386
  0.1239467474850536  0.7193584674066070  0.1471362597022088
  0.1235324855356789  0.9693697278306836  0.2535719711542319
  0.1216320189165118  0.7182082599018832  0.3576724508293300
  0.1241489957052439  0.7770779656357939  0.0396994599279076
  0.1239275567994917  0.5252788102594750  0.1471005522703007
  0.1235862649500418  0.7751045466277124  0.2545132232000636
  0.1215734939170567  0.5255802818477913  0.3576033194701176
  0.2907990507459866  0.6223066790144905  0.0812992481026528
  0.2907493266410404  0.8730082935957906  0.1901562894458053
  0.2913124733975461  0.6220618564993744  0.2954619909998932
  0.2890455117680459  0.8719940713168848  0.4004657001656595
  0.2907533386787042  0.6222858632129001  0.0002286719148513
  0.2905969512695453  0.8716878711581398  0.1075851513097762
  0.2904808450731338  0.6221275775161290  0.2115065790144184
  0.2894559623464006  0.8734184184715513  0.3197584200550016
  0.4575587080034281  0.9672983375992706  0.0384621969424070
  0.4572923669789484  0.7193486907427260  0.1471177013558337
  0.4571264500701447  0.9692817033192357  0.2538673321128247
  0.4549796476853847  0.7185193461547090  0.3574931888910641
  0.4575329241190758  0.7771254017559834  0.0396529381615631
  0.4572864717552365  0.5252545859387677  0.1470965747814000
  0.4566954889386438  0.7749379963195686  0.2546134689072262
  0.4549287867408124  0.5252599976837399  0.3573937430485934
  0.6240897095375796  0.6223041071868590  0.0813171205999747
  0.6238797098185097  0.8729824386345186  0.1901969641014431
  0.6245028633162487  0.6220815055819784  0.2954199242132813
  0.6227558459900937  0.8730109939408266  0.3990739165622257
  0.6240995186116554  0.6222594067250814  0.0003094542549548
  0.6239711274850234  0.8716326412210680  0.1075597479330856
  0.6237751182929132  0.6221283035487195  0.2114743197237945
  0.6228039936504820  0.8730848828204943  0.3197697386145195
  0.7908538749912482  0.9672992378241624  0.0384465851453438
  0.7906196927658100  0.7193762580599286  0.1471174292307384
  0.7899434577525543  0.9692784163909471  0.2539171310152564
  0.7880339484793447  0.7185547696477259  0.3575525711247948
  0.7908620620791703  0.7771145979408058  0.0396423264815272
  0.7906368217522095  0.5252683910597158  0.1470826430489071
  0.7905185803385946  0.7749785827131164  0.2546338876835065
  0.7880827092710007  0.5251742188243297  0.3574590622388913
  0.9573964980771476  0.6223069751452994  0.0812992788974903
  0.9569831963994980  0.8730477433541659  0.1901647320299564
  0.9579037788404905  0.6220962812789699  0.2955361199234799
  0.9567561345504538  0.8720309829281856  0.4002131754400095
  0.9575142018144465  0.6222005463690891  0.0002821048429390
  0.9573265104491769  0.8717897233707962  0.1075803762992890
  0.9570381478267938  0.6221543903939499  0.2114831072782009
  0.9566595288710776  0.8732830872062450  0.3197618552760351
  0.2925792267316657  0.6216533193342971  0.4200933627648229
  0.6242125828823440  0.6215045454794994  0.4200863294695180
  0.9572865965571317  0.6218517704254390  0.4201451461312417
  0.6348013189127405  0.1229155339334430  0.4232810870023325
  0.5417396701345653  0.1280827907395035  0.4380871017814645
 
  0.00000000E+00  0.00000000E+00  0.00000000E+00
  0.00000000E+00  0.00000000E+00  0.00000000E+00
  0.00000000E+00  0.00000000E+00  0.00000000E+00
  0.00000000E+00  0.00000000E+00  0.00000000E+00
  0.00000000E+00  0.00000000E+00  0.00000000E+00
  0.00000000E+00  0.00000000E+00  0.00000000E+00
  0.00000000E+00  0.00000000E+00  0.00000000E+00
  0.00000000E+00  0.00000000E+00  0.00000000E+00
  0.00000000E+00  0.00000000E+00  0.00000000E+00
  0.00000000E+00  0.00000000E+00  0.00000000E+00
  0.00000000E+00  0.00000000E+00  0.00000000E+00
  0.00000000E+00  0.00000000E+00  0.00000000E+00
  0.00000000E+00  0.00000000E+00  0.00000000E+00
  0.00000000E+00  0.00000000E+00  0.00000000E+00
  0.00000000E+00  0.00000000E+00  0.00000000E+00
  0.00000000E+00  0.00000000E+00  0.00000000E+00
  0.00000000E+00  0.00000000E+00  0.00000000E+00
  0.00000000E+00  0.00000000E+00  0.00000000E+00
  0.00000000E+00  0.00000000E+00  0.00000000E+00
  0.00000000E+00  0.00000000E+00  0.00000000E+00
  0.00000000E+00  0.00000000E+00  0.00000000E+00
  0.00000000E+00  0.00000000E+00  0.00000000E+00
  0.00000000E+00  0.00000000E+00  0.00000000E+00
  0.00000000E+00  0.00000000E+00  0.00000000E+00
  0.00000000E+00  0.00000000E+00  0.00000000E+00
  0.00000000E+00  0.00000000E+00  0.00000000E+00
  0.00000000E+00  0.00000000E+00  0.00000000E+00
  0.00000000E+00  0.00000000E+00  0.00000000E+00
  0.00000000E+00  0.00000000E+00  0.00000000E+00
  0.00000000E+00  0.00000000E+00  0.00000000E+00
  0.00000000E+00  0.00000000E+00  0.00000000E+00
  0.00000000E+00  0.00000000E+00  0.00000000E+00
  0.00000000E+00  0.00000000E+00  0.00000000E+00
  0.00000000E+00  0.00000000E+00  0.00000000E+00
  0.00000000E+00  0.00000000E+00  0.00000000E+00
  0.00000000E+00  0.00000000E+00  0.00000000E+00
  0.00000000E+00  0.00000000E+00  0.00000000E+00
  0.00000000E+00  0.00000000E+00  0.00000000E+00
  0.00000000E+00  0.00000000E+00  0.00000000E+00
  0.00000000E+00  0.00000000E+00  0.00000000E+00
  0.00000000E+00  0.00000000E+00  0.00000000E+00
  0.00000000E+00  0.00000000E+00  0.00000000E+00
  0.00000000E+00  0.00000000E+00  0.00000000E+00
  0.00000000E+00  0.00000000E+00  0.00000000E+00
  0.00000000E+00  0.00000000E+00  0.00000000E+00
  0.00000000E+00  0.00000000E+00  0.00000000E+00
  0.00000000E+00  0.00000000E+00  0.00000000E+00
  0.00000000E+00  0.00000000E+00  0.00000000E+00
  0.00000000E+00  0.00000000E+00  0.00000000E+00
  0.00000000E+00  0.00000000E+00  0.00000000E+00
  0.00000000E+00  0.00000000E+00  0.00000000E+00
  0.00000000E+00  0.00000000E+00  0.00000000E+00
  0.00000000E+00  0.00000000E+00  0.00000000E+00
  0.00000000E+00  0.00000000E+00  0.00000000E+00
  0.00000000E+00  0.00000000E+00  0.00000000E+00
  0.00000000E+00  0.00000000E+00  0.00000000E+00
  0.00000000E+00  0.00000000E+00  0.00000000E+00
  0.00000000E+00  0.00000000E+00  0.00000000E+00
  0.00000000E+00  0.00000000E+00  0.00000000E+00
  0.00000000E+00  0.00000000E+00  0.00000000E+00
  0.00000000E+00  0.00000000E+00  0.00000000E+00
  0.00000000E+00  0.00000000E+00  0.00000000E+00
  0.00000000E+00  0.00000000E+00  0.00000000E+00
  0.00000000E+00  0.00000000E+00  0.00000000E+00
  0.00000000E+00  0.00000000E+00  0.00000000E+00
  0.00000000E+00  0.00000000E+00  0.00000000E+00
  0.00000000E+00  0.00000000E+00  0.00000000E+00
  0.00000000E+00  0.00000000E+00  0.00000000E+00
  0.00000000E+00  0.00000000E+00  0.00000000E+00
  0.00000000E+00  0.00000000E+00  0.00000000E+00
  0.00000000E+00  0.00000000E+00  0.00000000E+00
  0.00000000E+00  0.00000000E+00  0.00000000E+00
  0.00000000E+00  0.00000000E+00  0.00000000E+00
  0.00000000E+00  0.00000000E+00  0.00000000E+00
  0.00000000E+00  0.00000000E+00  0.00000000E+00
  0.00000000E+00  0.00000000E+00  0.00000000E+00
  0.00000000E+00  0.00000000E+00  0.00000000E+00
  0.00000000E+00  0.00000000E+00  0.00000000E+00
  0.00000000E+00  0.00000000E+00  0.00000000E+00
  0.00000000E+00  0.00000000E+00  0.00000000E+00
  0.00000000E+00  0.00000000E+00  0.00000000E+00
  0.00000000E+00  0.00000000E+00  0.00000000E+00
  0.00000000E+00  0.00000000E+00  0.00000000E+00
  0.00000000E+00  0.00000000E+00  0.00000000E+00
  0.00000000E+00  0.00000000E+00  0.00000000E+00
  0.00000000E+00  0.00000000E+00  0.00000000E+00
  0.00000000E+00  0.00000000E+00  0.00000000E+00
  0.00000000E+00  0.00000000E+00  0.00000000E+00
  0.00000000E+00  0.00000000E+00  0.00000000E+00
  0.00000000E+00  0.00000000E+00  0.00000000E+00
  0.00000000E+00  0.00000000E+00  0.00000000E+00
  0.00000000E+00  0.00000000E+00  0.00000000E+00
  0.00000000E+00  0.00000000E+00  0.00000000E+00
  0.00000000E+00  0.00000000E+00  0.00000000E+00
  0.00000000E+00  0.00000000E+00  0.00000000E+00
  0.00000000E+00  0.00000000E+00  0.00000000E+00
  0.00000000E+00  0.00000000E+00  0.00000000E+00
  0.00000000E+00  0.00000000E+00  0.00000000E+00
  0.00000000E+00  0.00000000E+00  0.00000000E+00
  0.00000000E+00  0.00000000E+00  0.00000000E+00
  0.00000000E+00  0.00000000E+00  0.00000000E+00
  0.00000000E+00  0.00000000E+00  0.00000000E+00
  0.00000000E+00  0.00000000E+00  0.00000000E+00
  0.00000000E+00  0.00000000E+00  0.00000000E+00
  0.00000000E+00  0.00000000E+00  0.00000000E+00
  0.00000000E+00  0.00000000E+00  0.00000000E+00
  0.00000000E+00  0.00000000E+00  0.00000000E+00
  0.00000000E+00  0.00000000E+00  0.00000000E+00
  0.00000000E+00  0.00000000E+00  0.00000000E+00
  0.00000000E+00  0.00000000E+00  0.00000000E+00
  0.00000000E+00  0.00000000E+00  0.00000000E+00
  0.00000000E+00  0.00000000E+00  0.00000000E+00
  0.00000000E+00  0.00000000E+00  0.00000000E+00
  0.00000000E+00  0.00000000E+00  0.00000000E+00
  0.00000000E+00  0.00000000E+00  0.00000000E+00
  0.00000000E+00  0.00000000E+00  0.00000000E+00
  0.00000000E+00  0.00000000E+00  0.00000000E+00
  0.00000000E+00  0.00000000E+00  0.00000000E+00
  0.00000000E+00  0.00000000E+00  0.00000000E+00
  0.00000000E+00  0.00000000E+00  0.00000000E+00
  0.00000000E+00  0.00000000E+00  0.00000000E+00
  0.00000000E+00  0.00000000E+00  0.00000000E+00
  0.00000000E+00  0.00000000E+00  0.00000000E+00
  0.00000000E+00  0.00000000E+00  0.00000000E+00
  0.00000000E+00  0.00000000E+00  0.00000000E+00
  0.00000000E+00  0.00000000E+00  0.00000000E+00
  0.00000000E+00  0.00000000E+00  0.00000000E+00
  0.00000000E+00  0.00000000E+00  0.00000000E+00
  0.00000000E+00  0.00000000E+00  0.00000000E+00
  0.00000000E+00  0.00000000E+00  0.00000000E+00
  0.00000000E+00  0.00000000E+00  0.00000000E+00
  0.00000000E+00  0.00000000E+00  0.00000000E+00
  0.00000000E+00  0.00000000E+00  0.00000000E+00
  0.00000000E+00  0.00000000E+00  0.00000000E+00
  0.00000000E+00  0.00000000E+00  0.00000000E+00
  0.00000000E+00  0.00000000E+00  0.00000000E+00
  0.00000000E+00  0.00000000E+00  0.00000000E+00
  0.00000000E+00  0.00000000E+00  0.00000000E+00
  0.00000000E+00  0.00000000E+00  0.00000000E+00
  0.00000000E+00  0.00000000E+00  0.00000000E+00
  0.00000000E+00  0.00000000E+00  0.00000000E+00
  0.00000000E+00  0.00000000E+00  0.00000000E+00
  0.00000000E+00  0.00000000E+00  0.00000000E+00
  0.00000000E+00  0.00000000E+00  0.00000000E+00
  0.00000000E+00  0.00000000E+00  0.00000000E+00
  0.00000000E+00  0.00000000E+00  0.00000000E+00
  0.00000000E+00  0.00000000E+00  0.00000000E+00
  0.00000000E+00  0.00000000E+00  0.00000000E+00
  0.00000000E+00  0.00000000E+00  0.00000000E+00
