Converted by xsd2pos.py
1.0
     9.33402400     0.00000000     0.00000000
     0.00000000    12.67842600     0.00000000
     0.00000000     0.00000000    29.97550600
  Ru  O  H
  48  100  1
Direct
     0.29263600     0.37242700     0.04114500
     0.29263600     0.12242700     0.14688500
     0.29262300     0.37229200     0.25381900
     0.29257800     0.12206400     0.35602600
     0.12596900     0.12242700     0.04114500
     0.12596900     0.37242700     0.14688500
     0.12594800     0.12228100     0.25258800
     0.12589800     0.37204600     0.36269100
     0.62596900     0.37242700     0.04114500
     0.62596900     0.12242700     0.14688500
     0.62596700     0.37231200     0.25383100
     0.62590700     0.12205900     0.35602400
     0.45930300     0.12242700     0.04114500
     0.45930300     0.37242700     0.14688500
     0.45929300     0.12229300     0.25259100
     0.45925300     0.37204800     0.36268500
     0.95930300     0.37242700     0.04114500
     0.95930300     0.12242700     0.14688500
     0.95928800     0.37230300     0.25382800
     0.95922600     0.12206400     0.35602900
     0.79263600     0.12242700     0.04114500
     0.79263600     0.37242700     0.14688500
     0.79263100     0.12230800     0.25258800
     0.79259200     0.37204900     0.36270200
     0.29263600     0.87242700     0.04114500
     0.29263600     0.62242700     0.14688500
     0.29262300     0.87229100     0.25381900
     0.29257800     0.62206400     0.35602700
     0.12596900     0.62242700     0.04114500
     0.12596900     0.87242700     0.14688500
     0.12594800     0.62228100     0.25258800
     0.12589800     0.87204600     0.36269100
     0.62596900     0.87242700     0.04114500
     0.62596900     0.62242700     0.14688500
     0.62596700     0.87231100     0.25383100
     0.62590800     0.62205900     0.35602500
     0.45930300     0.62242700     0.04114500
     0.45930300     0.87242700     0.14688500
     0.45929100     0.62229300     0.25259200
     0.45925200     0.87204800     0.36268600
     0.95930300     0.87242700     0.04114500
     0.95930300     0.62242700     0.14688500
     0.95928800     0.87230200     0.25382800
     0.95922600     0.62206300     0.35603000
     0.79263600     0.62242700     0.04114500
     0.79263600     0.87242700     0.14688500
     0.79263100     0.62230800     0.25258900
     0.79259100     0.87204900     0.36270200
     0.12596900     0.46970600     0.04114500
     0.12596900     0.21970600     0.14688500
     0.12592600     0.46913400     0.25338100
     0.12586600     0.21730000     0.36040300
     0.12596900     0.27514900     0.04114500
     0.12596900     0.02514900     0.14688500
     0.12594600     0.27546000     0.25333000
     0.12588700     0.02681300     0.36034800
     0.29263600     0.12242700     0.08229000
     0.29263600     0.37242700     0.18803000
     0.29260800     0.12225000     0.29365200
     0.29257600     0.37202400     0.39986700
     0.29263600     0.12242700     0.00000000
     0.29263600     0.37242700     0.10574000
     0.29263200     0.12227100     0.21159000
     0.29257800     0.37205400     0.31902200
     0.45930300     0.46970600     0.04114500
     0.45930300     0.21970600     0.14688500
     0.45931700     0.46914400     0.25338200
     0.45926600     0.21730300     0.36038800
     0.45930300     0.27514900     0.04114500
     0.45930300     0.02514900     0.14688500
     0.45930900     0.27547000     0.25334000
     0.45925700     0.02681200     0.36034300
     0.62596900     0.12242700     0.08229000
     0.62596900     0.37242700     0.18803000
     0.62593200     0.12228600     0.29364900
     0.62592500     0.37207000     0.39988600
     0.62596900     0.12242700     0.00000000
     0.62596900     0.37242700     0.10574000
     0.62595900     0.12230000     0.21158200
     0.62593300     0.37208800     0.31902500
     0.79263600     0.46970600     0.04114500
     0.79263600     0.21970600     0.14688500
     0.79263400     0.46915300     0.25341200
     0.79257100     0.21730800     0.36040400
     0.79263600     0.27514900     0.04114500
     0.79263600     0.02514900     0.14688500
     0.79262700     0.27548700     0.25332800
     0.79257900     0.02679500     0.36033700
     0.95930300     0.12242700     0.08229000
     0.95930300     0.37242700     0.18803000
     0.95930200     0.12229300     0.29365200
     0.95924600     0.37207300     0.39989800
     0.95930300     0.12242700     0.00000000
     0.95930300     0.37242700     0.10574000
     0.95929100     0.12230600     0.21158100
     0.95926500     0.37207900     0.31902400
     0.12596900     0.96970600     0.04114500
     0.12596900     0.71970600     0.14688500
     0.12592600     0.96913400     0.25338100
     0.12586600     0.71730000     0.36040500
     0.12596900     0.77514900     0.04114500
     0.12596900     0.52514900     0.14688500
     0.12594600     0.77546100     0.25333000
     0.12588700     0.52681300     0.36034900
     0.29263600     0.62242700     0.08229000
     0.29263600     0.87242700     0.18803000
     0.29260800     0.62225000     0.29365300
     0.29257600     0.87202600     0.39986700
     0.29263600     0.62242700     0.00000000
     0.29263600     0.87242700     0.10574000
     0.29263200     0.62227100     0.21159100
     0.29257800     0.87205200     0.31902200
     0.45930300     0.96970600     0.04114500
     0.45930300     0.71970600     0.14688500
     0.45931700     0.96914400     0.25338300
     0.45926700     0.71730300     0.36038900
     0.45930300     0.77514900     0.04114500
     0.45930300     0.52514900     0.14688500
     0.45930900     0.77547000     0.25334000
     0.45925800     0.52681200     0.36034400
     0.62596900     0.62242700     0.08229000
     0.62596900     0.87242700     0.18803000
     0.62593200     0.62228600     0.29365000
     0.62592400     0.87207300     0.39988700
     0.62596900     0.62242700     0.00000000
     0.62596900     0.87242700     0.10574000
     0.62595900     0.62230000     0.21158300
     0.62593300     0.87208700     0.31902500
     0.79263600     0.96970600     0.04114500
     0.79263600     0.71970600     0.14688500
     0.79263400     0.96915300     0.25341200
     0.79257100     0.71730900     0.36040600
     0.79263600     0.77514900     0.04114500
     0.79263600     0.52514900     0.14688500
     0.79262700     0.77548700     0.25332800
     0.79257900     0.52679500     0.36033700
     0.95930300     0.62242700     0.08229000
     0.95930300     0.87242700     0.18803000
     0.95930200     0.62229300     0.29365300
     0.95924600     0.87207600     0.39989800
     0.95930300     0.62242700     0.00000000
     0.95930300     0.87242700     0.10574000
     0.95929100     0.62230600     0.21158100
     0.95926500     0.87207700     0.31902400
     0.26817844     0.61658097     0.41891233
     0.60654539     0.62366313     0.41911903
     0.93997121     0.62527779     0.41911622
     0.48977691     0.10876072     0.40793021
     0.39700163     0.11849364     0.43072734
