Ir  O                                   
   1.00000000000000     
     9.5301187200000008    0.0000000000000000    0.0000000000000000
     0.0000000000000000   12.7429519599999992    0.0000000000000000
     0.0000000000000000    0.0000000000000000   29.9954083400000009
   Ir   O 
    48    97
Selective dynamics
Direct
  0.2926360299999970  0.1224274300000019  0.0406427899999997   F   F   F
  0.2926360299999970  0.3724274300000019  0.1468503199999986   F   F   F
  0.2926277692774448  0.1226642362922092  0.2538921781172689   T   T   T
  0.2923031379471581  0.3724904151683290  0.3580220942582670   T   T   T
  0.1259693700000000  0.3724274300000019  0.0406427899999997   F   F   F
  0.1259693700000000  0.1224274300000019  0.1468503199999986   F   F   F
  0.1258833249612366  0.3724694594980775  0.2533067470969712   T   T   T
  0.1257675896330213  0.1225960356147198  0.3612491568966618   T   T   T
  0.6259693700000000  0.1224274300000019  0.0406427899999997   F   F   F
  0.6259693700000000  0.3724274300000019  0.1468503199999986   F   F   F
  0.6258835807793517  0.1222474232195765  0.2538560325617425   T   T   T
  0.6257341522402768  0.3724651714599645  0.3641038827156962   T   T   T
  0.4593027000000021  0.3724274300000019  0.0406427899999997   F   F   F
  0.4593027000000021  0.1224274300000019  0.1468503199999986   F   F   F
  0.4611028230126450  0.3724693774399555  0.2538155676713174   T   T   T
  0.4592607652849807  0.1221951892287620  0.3610815323710241   T   T   T
  0.9593027000000021  0.1224274300000019  0.0406427899999997   F   F   F
  0.9593027000000021  0.3724274300000019  0.1468503199999986   F   F   F
  0.9591361962560683  0.1226580282345111  0.2538950488266281   T   T   T
  0.9591796665814556  0.3724906299455526  0.3580218173031895   T   T   T
  0.7926360299999970  0.3724274300000019  0.0406427899999997   F   F   F
  0.7926360299999970  0.1224274300000019  0.1468503199999986   F   F   F
  0.7906603214344230  0.3724614525182162  0.2538175724524194   T   T   T
  0.7922710105425423  0.1221883603184963  0.3610775842928859   T   T   T
  0.2926360299999970  0.6224274300000019  0.0406427899999997   F   F   F
  0.2926360299999970  0.8724274300000019  0.1468503199999986   F   F   F
  0.2926128435474027  0.6222680018792914  0.2538962060187160   T   T   T
  0.2923192649572783  0.8724888562349591  0.3585523800847241   T   T   T
  0.1259693700000000  0.8724274300000019  0.0406427899999997   F   F   F
  0.1259693700000000  0.6224274300000019  0.1468503199999986   F   F   F
  0.1258771087573081  0.8724667994902120  0.2535260822602510   T   T   T
  0.1257568043888853  0.6223969229135164  0.3612567923204679   T   T   T
  0.6259693700000000  0.6224274300000019  0.0406427899999997   F   F   F
  0.6259693700000000  0.8724274300000019  0.1468503199999986   F   F   F
  0.6258685200970291  0.6226840246538288  0.2538575848229030   T   T   T
  0.6257777710456054  0.8724909158996041  0.3587879603204343   T   T   T
  0.4593027000000021  0.8724274300000019  0.0406427899999997   F   F   F
  0.4593027000000021  0.6224274300000019  0.1468503199999986   F   F   F
  0.4591509085333811  0.8724673397123297  0.2535990073740066   T   T   T
  0.4592560556570362  0.6227851411218595  0.3610878601986585   T   T   T
  0.9593027000000021  0.6224274300000019  0.0406427899999997   F   F   F
  0.9593027000000021  0.8724274300000019  0.1468503199999986   F   F   F
  0.9591194039044737  0.6222667236319239  0.2538969215225890   T   T   T
  0.9592368926281054  0.8724971131496275  0.3585518024707000   T   T   T
  0.7926360299999970  0.8724274300000019  0.0406427899999997   F   F   F
  0.7926360299999970  0.6224274300000019  0.1468503199999986   F   F   F
  0.7926086163872412  0.8724550924795977  0.2535998353764271   T   T   T
  0.7922567918272208  0.6227802959036239  0.3610916153687853   T   T   T
  0.1259693700000000  0.2180957799999987  0.0406427899999997   F   F   F
  0.1259693700000000  0.4680957799999987  0.1468503199999986   F   F   F
  0.1258905202741119  0.2184038172004037  0.2536577108571620   T   T   T
  0.1257471826940986  0.4680025052719259  0.3612651509456555   T   T   T
  0.1259693700000000  0.0267590799999979  0.0406427899999997   F   F   F
  0.1259693700000000  0.2767590799999979  0.1468503199999986   F   F   F
  0.1258727206610288  0.0268613326909133  0.2538138889955306   T   T   T
  0.1257446284352568  0.2769786020944096  0.3612556671612666   T   T   T
  0.2926360299999970  0.3724274300000019  0.0812855900000002   F   F   F
  0.2926360299999970  0.1224274300000019  0.1874931099999984   F   F   F
  0.2931855232168630  0.3724908169636763  0.2940597581961839   T   T   T
  0.2927404754413203  0.1223508196005838  0.4010833738518542   T   T   T
  0.2926360299999970  0.3724274300000019  0.0000000000000000   F   F   F
  0.2926360299999970  0.1224274300000019  0.1062075199999981   F   F   F
  0.2929975634447146  0.3724900992428744  0.2126814517563105   T   T   T
  0.2925326371129557  0.1226725336092258  0.3196047185155990   T   T   T
  0.4593027000000021  0.2180957799999987  0.0406427899999997   F   F   F
  0.4593027000000021  0.4680957799999987  0.1468503199999986   F   F   F
  0.4596647886619181  0.2183017248228580  0.2536632408188453   T   T   T
  0.4589737101888360  0.4682041649807260  0.3603768855409939   T   T   T
  0.4593027000000021  0.0267590799999979  0.0406427899999997   F   F   F
  0.4593027000000021  0.2767590799999979  0.1468503199999986   F   F   F
  0.4591208753049258  0.0266574742667629  0.2538452599960337   T   T   T
  0.4589521655295457  0.2767555572583689  0.3603632795882845   T   T   T
  0.6259693700000000  0.3724274300000019  0.0812855900000002   F   F   F
  0.6259693700000000  0.1224274300000019  0.1874931099999984   F   F   F
  0.6258566514368269  0.3724332178803138  0.2954559632435974   T   T   T
  0.6257757811920612  0.1214745306787890  0.4008890270615737   T   T   T
  0.6259693700000000  0.3724274300000019  0.0000000000000000   F   F   F
  0.6259693700000000  0.1224274300000019  0.1062075199999981   F   F   F
  0.6259028287134925  0.3724400996722466  0.2125846910159481   T   T   T
  0.6257863835285562  0.1217192677388397  0.3195051185361493   T   T   T
  0.7926360299999970  0.2180957799999987  0.0406427899999997   F   F   F
  0.7926360299999970  0.4680957799999987  0.1468503199999986   F   F   F
  0.7921076160365956  0.2182964301303940  0.2536777706260693   T   T   T
  0.7925240249203114  0.4682021270254921  0.3604062738489162   T   T   T
  0.7926360299999970  0.0267590799999979  0.0406427899999997   F   F   F
  0.7926360299999970  0.2767590799999979  0.1468503199999986   F   F   F
  0.7926482606865690  0.0266511920654722  0.2538750772887326   T   T   T
  0.7925223889648549  0.2767542328069013  0.3603743256781229   T   T   T
  0.9593027000000021  0.3724274300000019  0.0812855900000002   F   F   F
  0.9593027000000021  0.1224274300000019  0.1874931099999984   F   F   F
  0.9585495650666118  0.3723346190287273  0.2940571222418882   T   T   T
  0.9587858058400585  0.1222386870233407  0.4010711984748099   T   T   T
  0.9593027000000021  0.3724274300000019  0.0000000000000000   F   F   F
  0.9593027000000021  0.1224274300000019  0.1062075199999981   F   F   F
  0.9588020952198448  0.3724394105307312  0.2126800795651675   T   T   T
  0.9590331782965791  0.1226367353532609  0.3196022471228943   T   T   T
  0.1259693700000000  0.7180957799999987  0.0406427899999997   F   F   F
  0.1259693700000000  0.9680957799999987  0.1468503199999986   F   F   F
  0.1258692149743581  0.7180597216064513  0.2537974071243880   T   T   T
  0.1257766875684467  0.9681339898260148  0.3614994828730218   T   T   T
  0.1259693700000000  0.5267590799999979  0.0406427899999997   F   F   F
  0.1259693700000000  0.7767590799999979  0.1468503199999986   F   F   F
  0.1258619307163826  0.5265206255837498  0.2536940812749506   T   T   T
  0.1257732672233658  0.7768556947288232  0.3615202820239958   T   T   T
  0.2926360299999970  0.8724274300000019  0.0812855900000002   F   F   F
  0.2926360299999970  0.6224274300000019  0.1874931099999984   F   F   F
  0.2924166971329996  0.8723991787821319  0.2943475679129435   T   T   T
  0.2927332682451080  0.6227059147232552  0.4010893689916344   T   T   T
  0.2926360299999970  0.8724274300000019  0.0000000000000000   F   F   F
  0.2926360299999970  0.6224274300000019  0.1062075199999981   F   F   F
  0.2925668322650594  0.8725006407543603  0.2125290297196258   T   T   T
  0.2925184925771376  0.6223372504726044  0.3196117019739688   T   T   T
  0.4593027000000021  0.7180957799999987  0.0406427899999997   F   F   F
  0.4593027000000021  0.9680957799999987  0.1468503199999986   F   F   F
  0.4590972638848001  0.7182682579116459  0.2538201832807374   T   T   T
  0.4588676814537536  0.9678852511640272  0.3616700664777497   T   T   T
  0.4593027000000021  0.5267590799999979  0.0406427899999997   F   F   F
  0.4593027000000021  0.7767590799999979  0.1468503199999986   F   F   F
  0.4596564099580362  0.5266293701710509  0.2536920762322694   T   T   T
  0.4588818373299191  0.7770807892268579  0.3616998828552767   T   T   T
  0.6259693700000000  0.8724274300000019  0.0812855900000002   F   F   F
  0.6259693700000000  0.6224274300000019  0.1874931099999984   F   F   F
  0.6258663777977063  0.8722205682530841  0.2945474796766732   T   T   T
  0.6257388737640284  0.6233732190262771  0.4008963845135440   T   T   T
  0.6259693700000000  0.8724274300000019  0.0000000000000000   F   F   F
  0.6259693700000000  0.6224274300000019  0.1062075199999981   F   F   F
  0.6259017757861471  0.8724544532874958  0.2126011546756459   T   T   T
  0.6257785726385876  0.6232231408855640  0.3195116306952883   T   T   T
  0.7926360299999970  0.7180957799999987  0.0406427899999997   F   F   F
  0.7926360299999970  0.9680957799999987  0.1468503199999986   F   F   F
  0.7926399181866728  0.7182593025963371  0.2538226316183625   T   T   T
  0.7926762065599604  0.9678927416885799  0.3616641481829390   T   T   T
  0.7926360299999970  0.5267590799999979  0.0406427899999997   F   F   F
  0.7926360299999970  0.7767590799999979  0.1468503199999986   F   F   F
  0.7920833882462617  0.5266305120412795  0.2537047856205206   T   T   T
  0.7926863904462707  0.7770840698885664  0.3617086209108393   T   T   T
  0.9593027000000021  0.8724274300000019  0.0812855900000002   F   F   F
  0.9593027000000021  0.6224274300000019  0.1874931099999984   F   F   F
  0.9593108655303908  0.8722665958436338  0.2943453997841488   T   T   T
  0.9587888413236527  0.6225937546139164  0.4010817421399011   T   T   T
  0.9593027000000021  0.8724274300000019  0.0000000000000000   F   F   F
  0.9593027000000021  0.6224274300000019  0.1062075199999981   F   F   F
  0.9592228383826225  0.8724600521649606  0.2125267937796593   T   T   T
  0.9590060800033271  0.6222927509800229  0.3196092720256090   T   T   T
  0.6256557602942507  0.3723243839195476  0.4243214216032740   T   T   T
 
  0.00000000E+00  0.00000000E+00  0.00000000E+00
  0.00000000E+00  0.00000000E+00  0.00000000E+00
  0.00000000E+00  0.00000000E+00  0.00000000E+00
  0.00000000E+00  0.00000000E+00  0.00000000E+00
  0.00000000E+00  0.00000000E+00  0.00000000E+00
  0.00000000E+00  0.00000000E+00  0.00000000E+00
  0.00000000E+00  0.00000000E+00  0.00000000E+00
  0.00000000E+00  0.00000000E+00  0.00000000E+00
  0.00000000E+00  0.00000000E+00  0.00000000E+00
  0.00000000E+00  0.00000000E+00  0.00000000E+00
  0.00000000E+00  0.00000000E+00  0.00000000E+00
  0.00000000E+00  0.00000000E+00  0.00000000E+00
  0.00000000E+00  0.00000000E+00  0.00000000E+00
  0.00000000E+00  0.00000000E+00  0.00000000E+00
  0.00000000E+00  0.00000000E+00  0.00000000E+00
  0.00000000E+00  0.00000000E+00  0.00000000E+00
  0.00000000E+00  0.00000000E+00  0.00000000E+00
  0.00000000E+00  0.00000000E+00  0.00000000E+00
  0.00000000E+00  0.00000000E+00  0.00000000E+00
  0.00000000E+00  0.00000000E+00  0.00000000E+00
  0.00000000E+00  0.00000000E+00  0.00000000E+00
  0.00000000E+00  0.00000000E+00  0.00000000E+00
  0.00000000E+00  0.00000000E+00  0.00000000E+00
  0.00000000E+00  0.00000000E+00  0.00000000E+00
  0.00000000E+00  0.00000000E+00  0.00000000E+00
  0.00000000E+00  0.00000000E+00  0.00000000E+00
  0.00000000E+00  0.00000000E+00  0.00000000E+00
  0.00000000E+00  0.00000000E+00  0.00000000E+00
  0.00000000E+00  0.00000000E+00  0.00000000E+00
  0.00000000E+00  0.00000000E+00  0.00000000E+00
  0.00000000E+00  0.00000000E+00  0.00000000E+00
  0.00000000E+00  0.00000000E+00  0.00000000E+00
  0.00000000E+00  0.00000000E+00  0.00000000E+00
  0.00000000E+00  0.00000000E+00  0.00000000E+00
  0.00000000E+00  0.00000000E+00  0.00000000E+00
  0.00000000E+00  0.00000000E+00  0.00000000E+00
  0.00000000E+00  0.00000000E+00  0.00000000E+00
  0.00000000E+00  0.00000000E+00  0.00000000E+00
  0.00000000E+00  0.00000000E+00  0.00000000E+00
  0.00000000E+00  0.00000000E+00  0.00000000E+00
  0.00000000E+00  0.00000000E+00  0.00000000E+00
  0.00000000E+00  0.00000000E+00  0.00000000E+00
  0.00000000E+00  0.00000000E+00  0.00000000E+00
  0.00000000E+00  0.00000000E+00  0.00000000E+00
  0.00000000E+00  0.00000000E+00  0.00000000E+00
  0.00000000E+00  0.00000000E+00  0.00000000E+00
  0.00000000E+00  0.00000000E+00  0.00000000E+00
  0.00000000E+00  0.00000000E+00  0.00000000E+00
  0.00000000E+00  0.00000000E+00  0.00000000E+00
  0.00000000E+00  0.00000000E+00  0.00000000E+00
  0.00000000E+00  0.00000000E+00  0.00000000E+00
  0.00000000E+00  0.00000000E+00  0.00000000E+00
  0.00000000E+00  0.00000000E+00  0.00000000E+00
  0.00000000E+00  0.00000000E+00  0.00000000E+00
  0.00000000E+00  0.00000000E+00  0.00000000E+00
  0.00000000E+00  0.00000000E+00  0.00000000E+00
  0.00000000E+00  0.00000000E+00  0.00000000E+00
  0.00000000E+00  0.00000000E+00  0.00000000E+00
  0.00000000E+00  0.00000000E+00  0.00000000E+00
  0.00000000E+00  0.00000000E+00  0.00000000E+00
  0.00000000E+00  0.00000000E+00  0.00000000E+00
  0.00000000E+00  0.00000000E+00  0.00000000E+00
  0.00000000E+00  0.00000000E+00  0.00000000E+00
  0.00000000E+00  0.00000000E+00  0.00000000E+00
  0.00000000E+00  0.00000000E+00  0.00000000E+00
  0.00000000E+00  0.00000000E+00  0.00000000E+00
  0.00000000E+00  0.00000000E+00  0.00000000E+00
  0.00000000E+00  0.00000000E+00  0.00000000E+00
  0.00000000E+00  0.00000000E+00  0.00000000E+00
  0.00000000E+00  0.00000000E+00  0.00000000E+00
  0.00000000E+00  0.00000000E+00  0.00000000E+00
  0.00000000E+00  0.00000000E+00  0.00000000E+00
  0.00000000E+00  0.00000000E+00  0.00000000E+00
  0.00000000E+00  0.00000000E+00  0.00000000E+00
  0.00000000E+00  0.00000000E+00  0.00000000E+00
  0.00000000E+00  0.00000000E+00  0.00000000E+00
  0.00000000E+00  0.00000000E+00  0.00000000E+00
  0.00000000E+00  0.00000000E+00  0.00000000E+00
  0.00000000E+00  0.00000000E+00  0.00000000E+00
  0.00000000E+00  0.00000000E+00  0.00000000E+00
  0.00000000E+00  0.00000000E+00  0.00000000E+00
  0.00000000E+00  0.00000000E+00  0.00000000E+00
  0.00000000E+00  0.00000000E+00  0.00000000E+00
  0.00000000E+00  0.00000000E+00  0.00000000E+00
  0.00000000E+00  0.00000000E+00  0.00000000E+00
  0.00000000E+00  0.00000000E+00  0.00000000E+00
  0.00000000E+00  0.00000000E+00  0.00000000E+00
  0.00000000E+00  0.00000000E+00  0.00000000E+00
  0.00000000E+00  0.00000000E+00  0.00000000E+00
  0.00000000E+00  0.00000000E+00  0.00000000E+00
  0.00000000E+00  0.00000000E+00  0.00000000E+00
  0.00000000E+00  0.00000000E+00  0.00000000E+00
  0.00000000E+00  0.00000000E+00  0.00000000E+00
  0.00000000E+00  0.00000000E+00  0.00000000E+00
  0.00000000E+00  0.00000000E+00  0.00000000E+00
  0.00000000E+00  0.00000000E+00  0.00000000E+00
  0.00000000E+00  0.00000000E+00  0.00000000E+00
  0.00000000E+00  0.00000000E+00  0.00000000E+00
  0.00000000E+00  0.00000000E+00  0.00000000E+00
  0.00000000E+00  0.00000000E+00  0.00000000E+00
  0.00000000E+00  0.00000000E+00  0.00000000E+00
  0.00000000E+00  0.00000000E+00  0.00000000E+00
  0.00000000E+00  0.00000000E+00  0.00000000E+00
  0.00000000E+00  0.00000000E+00  0.00000000E+00
  0.00000000E+00  0.00000000E+00  0.00000000E+00
  0.00000000E+00  0.00000000E+00  0.00000000E+00
  0.00000000E+00  0.00000000E+00  0.00000000E+00
  0.00000000E+00  0.00000000E+00  0.00000000E+00
  0.00000000E+00  0.00000000E+00  0.00000000E+00
  0.00000000E+00  0.00000000E+00  0.00000000E+00
  0.00000000E+00  0.00000000E+00  0.00000000E+00
  0.00000000E+00  0.00000000E+00  0.00000000E+00
  0.00000000E+00  0.00000000E+00  0.00000000E+00
  0.00000000E+00  0.00000000E+00  0.00000000E+00
  0.00000000E+00  0.00000000E+00  0.00000000E+00
  0.00000000E+00  0.00000000E+00  0.00000000E+00
  0.00000000E+00  0.00000000E+00  0.00000000E+00
  0.00000000E+00  0.00000000E+00  0.00000000E+00
  0.00000000E+00  0.00000000E+00  0.00000000E+00
  0.00000000E+00  0.00000000E+00  0.00000000E+00
  0.00000000E+00  0.00000000E+00  0.00000000E+00
  0.00000000E+00  0.00000000E+00  0.00000000E+00
  0.00000000E+00  0.00000000E+00  0.00000000E+00
  0.00000000E+00  0.00000000E+00  0.00000000E+00
  0.00000000E+00  0.00000000E+00  0.00000000E+00
  0.00000000E+00  0.00000000E+00  0.00000000E+00
  0.00000000E+00  0.00000000E+00  0.00000000E+00
  0.00000000E+00  0.00000000E+00  0.00000000E+00
  0.00000000E+00  0.00000000E+00  0.00000000E+00
  0.00000000E+00  0.00000000E+00  0.00000000E+00
  0.00000000E+00  0.00000000E+00  0.00000000E+00
  0.00000000E+00  0.00000000E+00  0.00000000E+00
  0.00000000E+00  0.00000000E+00  0.00000000E+00
  0.00000000E+00  0.00000000E+00  0.00000000E+00
  0.00000000E+00  0.00000000E+00  0.00000000E+00
  0.00000000E+00  0.00000000E+00  0.00000000E+00
  0.00000000E+00  0.00000000E+00  0.00000000E+00
  0.00000000E+00  0.00000000E+00  0.00000000E+00
  0.00000000E+00  0.00000000E+00  0.00000000E+00
  0.00000000E+00  0.00000000E+00  0.00000000E+00
  0.00000000E+00  0.00000000E+00  0.00000000E+00
  0.00000000E+00  0.00000000E+00  0.00000000E+00
  0.00000000E+00  0.00000000E+00  0.00000000E+00
  0.00000000E+00  0.00000000E+00  0.00000000E+00
  0.00000000E+00  0.00000000E+00  0.00000000E+00
