Ir O  H                                 
   1.00000000000000     
     9.5301189999999991    0.0000000000000000    0.0000000000000000
     0.0000000000000000   12.7429520000000007    0.0000000000000000
     0.0000000000000000    0.0000000000000000   29.9954089999999987
   Ir   O    H 
    48    98     1
Selective dynamics
Direct
  0.2926360000000017  0.1224270000000018  0.0406430000000029   F   F   F
  0.2926360000000017  0.3724270000000018  0.1468500000000006   F   F   F
  0.2929475036897595  0.1221133539238412  0.2540525999065461   T   T   T
  0.2915933197080158  0.3730960353148625  0.3612471640157284   T   T   T
  0.1259689999999978  0.3724270000000018  0.0406430000000029   F   F   F
  0.1259689999999978  0.1224270000000018  0.1468500000000006   F   F   F
  0.1277839336281177  0.3723915573031721  0.2537319374523471   T   T   T
  0.1263819171970738  0.1226515170901892  0.3615509239727552   T   T   T
  0.6259689999999978  0.1224270000000018  0.0406430000000029   F   F   F
  0.6259689999999978  0.3724270000000018  0.1468500000000006   F   F   F
  0.6262287513441294  0.1224308661442062  0.2540806524651669   T   T   T
  0.6257606795418137  0.3731424483003971  0.3581386796996763   T   T   T
  0.4593029999999985  0.3724270000000018  0.0406430000000029   F   F   F
  0.4593029999999985  0.1224270000000018  0.1468500000000006   F   F   F
  0.4584287355397559  0.3724050439403516  0.2535631014154227   T   T   T
  0.4598400486405094  0.1229136804242382  0.3616785418734016   T   T   T
  0.9593029999999985  0.1224270000000018  0.0406430000000029   F   F   F
  0.9593029999999985  0.3724270000000018  0.1468500000000006   F   F   F
  0.9595891170138283  0.1224055756997641  0.2540712382724366   T   T   T
  0.9597982767489992  0.3731409658135428  0.3581064957368547   T   T   T
  0.7926360000000017  0.3724270000000018  0.0406430000000029   F   F   F
  0.7926360000000017  0.1224270000000018  0.1468500000000006   F   F   F
  0.7929719271646783  0.3723958299793587  0.2530533881862995   T   T   T
  0.7930975205539472  0.1231636166378026  0.3617921910424160   T   T   T
  0.2926360000000017  0.6224270000000018  0.0406430000000029   F   F   F
  0.2926360000000017  0.8724270000000018  0.1468500000000006   F   F   F
  0.2929632296318360  0.6226176547556715  0.2539627863765937   T   T   T
  0.2932878083913373  0.8733037303722699  0.3590002789605068   T   T   T
  0.1259689999999978  0.8724270000000018  0.0406430000000029   F   F   F
  0.1259689999999978  0.6224270000000018  0.1468500000000006   F   F   F
  0.1261636169867579  0.8723348521161143  0.2533895427733313   T   T   T
  0.1264240592785681  0.6235660947487400  0.3615007172263506   T   T   T
  0.6259689999999978  0.6224270000000018  0.0406430000000029   F   F   F
  0.6259689999999978  0.8724270000000018  0.1468500000000006   F   F   F
  0.6262602081213827  0.6223139473184880  0.2539918348098371   T   T   T
  0.6266955777377730  0.8732710574336883  0.3588320316076379   T   T   T
  0.4593029999999985  0.8724270000000018  0.0406430000000029   F   F   F
  0.4593029999999985  0.6224270000000018  0.1468500000000006   F   F   F
  0.4595995048092575  0.8723374332406582  0.2533633540892726   T   T   T
  0.4598401762446936  0.6233506426187959  0.3616283410527911   T   T   T
  0.9593029999999985  0.6224270000000018  0.0406430000000029   F   F   F
  0.9593029999999985  0.8724270000000018  0.1468500000000006   F   F   F
  0.9595966988677769  0.6223280100736487  0.2539827750965669   T   T   T
  0.9597612571276478  0.8732671191946300  0.3588938696614293   T   T   T
  0.7926360000000017  0.8724270000000018  0.0406430000000029   F   F   F
  0.7926360000000017  0.6224270000000018  0.1468500000000006   F   F   F
  0.7929084348577234  0.8723357086441876  0.2533475994248396   T   T   T
  0.7931174914276283  0.6230570968746227  0.3617443363618270   T   T   T
  0.1259689999999978  0.2180960000000027  0.0406430000000029   F   F   F
  0.1259689999999978  0.4680960000000027  0.1468500000000006   F   F   F
  0.1266122091609520  0.2179778540491986  0.2537350388714015   T   T   T
  0.1253124028597241  0.4690574242271784  0.3602980819310326   T   T   T
  0.1259689999999978  0.0267589999999984  0.0406430000000029   F   F   F
  0.1259689999999978  0.2767589999999984  0.1468500000000006   F   F   F
  0.1261874345660309  0.0263922643389108  0.2543093713588709   T   T   T
  0.1252505990294874  0.2771458632048159  0.3607214708559804   T   T   T
  0.2926360000000017  0.3724270000000018  0.0812859999999986   F   F   F
  0.2926360000000017  0.1224270000000018  0.1874930000000035   F   F   F
  0.2937942682413001  0.3722835897770612  0.2950459493599917   T   T   T
  0.2929153006153070  0.1212626973762585  0.4010373647067498   T   T   T
  0.2926360000000017  0.3724270000000018  0.0000000000000000   F   F   F
  0.2926360000000017  0.1224270000000018  0.1062080000000023   F   F   F
  0.2927852899675109  0.3726019782788748  0.2125237392363709   T   T   T
  0.2933030953332415  0.1222158108437098  0.3197845206588766   T   T   T
  0.4593029999999985  0.2180960000000027  0.0406430000000029   F   F   F
  0.4593029999999985  0.4680960000000027  0.1468500000000006   F   F   F
  0.4593238841321077  0.2180289901319362  0.2536220305277822   T   T   T
  0.4606249434498143  0.4687502464281258  0.3615345659951781   T   T   T
  0.4593029999999985  0.0267589999999984  0.0406430000000029   F   F   F
  0.4593029999999985  0.2767589999999984  0.1468500000000006   F   F   F
  0.4596475777387024  0.0264163154517492  0.2542305528930204   T   T   T
  0.4605444621729864  0.2775052013894598  0.3619288525005973   T   T   T
  0.6259689999999978  0.3724270000000018  0.0812859999999986   F   F   F
  0.6259689999999978  0.1224270000000018  0.1874930000000035   F   F   F
  0.6264214930950952  0.3710395753910264  0.2935696854082962   T   T   T
  0.6262187860078028  0.1227294903111754  0.4013106743922916   T   T   T
  0.6259689999999978  0.3724270000000018  0.0000000000000000   F   F   F
  0.6259689999999978  0.1224270000000018  0.1062080000000023   F   F   F
  0.6256711986256450  0.3725773398745217  0.2124955199063532   T   T   T
  0.6265608491830016  0.1227081248671566  0.3199067560315615   T   T   T
  0.7926360000000017  0.2180960000000027  0.0406430000000029   F   F   F
  0.7926360000000017  0.4680960000000027  0.1468500000000006   F   F   F
  0.7929228705617350  0.2181899103730651  0.2535506073285806   T   T   T
  0.7927658001109886  0.4680879335738417  0.3621241391652187   T   T   T
  0.7926360000000017  0.0267589999999984  0.0406430000000029   F   F   F
  0.7926360000000017  0.2767589999999984  0.1468500000000006   F   F   F
  0.7929008755711914  0.0265707708051845  0.2542262631516641   T   T   T
  0.7927584079951082  0.2780842007049837  0.3625109333755720   T   T   T
  0.9593029999999985  0.3724270000000018  0.0812859999999986   F   F   F
  0.9593029999999985  0.1224270000000018  0.1874930000000035   F   F   F
  0.9591908905684016  0.3711757913342783  0.2936816434054859   T   T   T
  0.9601820668812607  0.1228929749356188  0.4012313161324749   T   T   T
  0.9593029999999985  0.3724270000000018  0.0000000000000000   F   F   F
  0.9593029999999985  0.1224270000000018  0.1062080000000023   F   F   F
  0.9605075519435825  0.3725511423206124  0.2125702892203165   T   T   T
  0.9595058414521299  0.1223244511793624  0.3198584805403535   T   T   T
  0.1259689999999978  0.7180960000000027  0.0406430000000029   F   F   F
  0.1259689999999978  0.9680960000000027  0.1468500000000006   F   F   F
  0.1261801680754924  0.7180892130788508  0.2535917050636508   T   T   T
  0.1264735957852668  0.9681037159214445  0.3629811829663003   T   T   T
  0.1259689999999978  0.5267589999999984  0.0406430000000029   F   F   F
  0.1259689999999978  0.7767589999999984  0.1468500000000006   F   F   F
  0.1265574536733101  0.5267268840280529  0.2539617566535406   T   T   T
  0.1264381360663962  0.7780149194498630  0.3631838628690612   T   T   T
  0.2926360000000017  0.8724270000000018  0.0812859999999986   F   F   F
  0.2926360000000017  0.6224270000000018  0.1874930000000035   F   F   F
  0.2929609188092073  0.8681776764970847  0.2940734247485048   T   T   T
  0.2929441560228833  0.6243707289104685  0.4010028831113209   T   T   T
  0.2926360000000017  0.8724270000000018  0.0000000000000000   F   F   F
  0.2926360000000017  0.6224270000000018  0.1062080000000023   F   F   F
  0.2928141855635335  0.8731906420631123  0.2124042064054062   T   T   T
  0.2933188540787577  0.6235924290472710  0.3197251477563076   T   T   T
  0.4593029999999985  0.7180960000000027  0.0406430000000029   F   F   F
  0.4593029999999985  0.9680960000000027  0.1468500000000006   F   F   F
  0.4596826190130704  0.7180751518325086  0.2535314899384923   T   T   T
  0.4599933000459503  0.9681830206821589  0.3628813898233772   T   T   T
  0.4593029999999985  0.5267589999999984  0.0406430000000029   F   F   F
  0.4593029999999985  0.7767589999999984  0.1468500000000006   F   F   F
  0.4594263677556712  0.5266783496251515  0.2538692375076775   T   T   T
  0.4600323599772655  0.7779721921388180  0.3630758573385530   T   T   T
  0.6259689999999978  0.8724270000000018  0.0812859999999986   F   F   F
  0.6259689999999978  0.6224270000000018  0.1874930000000035   F   F   F
  0.6262921516170613  0.8686799383176660  0.2939519069524309   T   T   T
  0.6262117185489779  0.6225828288086973  0.4012682616517205   T   T   T
  0.6259689999999978  0.8724270000000018  0.0000000000000000   F   F   F
  0.6259689999999978  0.6224270000000018  0.1062080000000023   F   F   F
  0.6261948996508829  0.8732198923349724  0.2123618588043343   T   T   T
  0.6265631887789347  0.6230406563430784  0.3198562821550245   T   T   T
  0.7926360000000017  0.7180960000000027  0.0406430000000029   F   F   F
  0.7926360000000017  0.9680960000000027  0.1468500000000006   F   F   F
  0.7929213616296629  0.7179333224074200  0.2535841258583625   T   T   T
  0.7931787020794056  0.9682434129041044  0.3630386461964308   T   T   T
  0.7926360000000017  0.5267589999999984  0.0406430000000029   F   F   F
  0.7926360000000017  0.7767589999999984  0.1468500000000006   F   F   F
  0.7929363149803467  0.5264828493796132  0.2538843809461544   T   T   T
  0.7932001619619994  0.7778893142936869  0.3633011126924478   T   T   T
  0.9593029999999985  0.8724270000000018  0.0812859999999986   F   F   F
  0.9593029999999985  0.6224270000000018  0.1874930000000035   F   F   F
  0.9595254026334206  0.8686068196471060  0.2939845439326693   T   T   T
  0.9602323459079521  0.6223260117328114  0.4011935322190536   T   T   T
  0.9593029999999985  0.8724270000000018  0.0000000000000000   F   F   F
  0.9593029999999985  0.6224270000000018  0.1062080000000023   F   F   F
  0.9594974643585698  0.8732238825785245  0.2123751738907138   T   T   T
  0.9595455220750798  0.6233467570708127  0.3198098476963424   T   T   T
  0.2958046095746346  0.3743659809510593  0.4255498204382045   T   T   T
  0.1566984448117036  0.3733548581913720  0.4444063634120844   T   T   T
  0.1807017611746685  0.3789096746062953  0.4761398819868228   T   T   T
 
  0.00000000E+00  0.00000000E+00  0.00000000E+00
  0.00000000E+00  0.00000000E+00  0.00000000E+00
  0.00000000E+00  0.00000000E+00  0.00000000E+00
  0.00000000E+00  0.00000000E+00  0.00000000E+00
  0.00000000E+00  0.00000000E+00  0.00000000E+00
  0.00000000E+00  0.00000000E+00  0.00000000E+00
  0.00000000E+00  0.00000000E+00  0.00000000E+00
  0.00000000E+00  0.00000000E+00  0.00000000E+00
  0.00000000E+00  0.00000000E+00  0.00000000E+00
  0.00000000E+00  0.00000000E+00  0.00000000E+00
  0.00000000E+00  0.00000000E+00  0.00000000E+00
  0.00000000E+00  0.00000000E+00  0.00000000E+00
  0.00000000E+00  0.00000000E+00  0.00000000E+00
  0.00000000E+00  0.00000000E+00  0.00000000E+00
  0.00000000E+00  0.00000000E+00  0.00000000E+00
  0.00000000E+00  0.00000000E+00  0.00000000E+00
  0.00000000E+00  0.00000000E+00  0.00000000E+00
  0.00000000E+00  0.00000000E+00  0.00000000E+00
  0.00000000E+00  0.00000000E+00  0.00000000E+00
  0.00000000E+00  0.00000000E+00  0.00000000E+00
  0.00000000E+00  0.00000000E+00  0.00000000E+00
  0.00000000E+00  0.00000000E+00  0.00000000E+00
  0.00000000E+00  0.00000000E+00  0.00000000E+00
  0.00000000E+00  0.00000000E+00  0.00000000E+00
  0.00000000E+00  0.00000000E+00  0.00000000E+00
  0.00000000E+00  0.00000000E+00  0.00000000E+00
  0.00000000E+00  0.00000000E+00  0.00000000E+00
  0.00000000E+00  0.00000000E+00  0.00000000E+00
  0.00000000E+00  0.00000000E+00  0.00000000E+00
  0.00000000E+00  0.00000000E+00  0.00000000E+00
  0.00000000E+00  0.00000000E+00  0.00000000E+00
  0.00000000E+00  0.00000000E+00  0.00000000E+00
  0.00000000E+00  0.00000000E+00  0.00000000E+00
  0.00000000E+00  0.00000000E+00  0.00000000E+00
  0.00000000E+00  0.00000000E+00  0.00000000E+00
  0.00000000E+00  0.00000000E+00  0.00000000E+00
  0.00000000E+00  0.00000000E+00  0.00000000E+00
  0.00000000E+00  0.00000000E+00  0.00000000E+00
  0.00000000E+00  0.00000000E+00  0.00000000E+00
  0.00000000E+00  0.00000000E+00  0.00000000E+00
  0.00000000E+00  0.00000000E+00  0.00000000E+00
  0.00000000E+00  0.00000000E+00  0.00000000E+00
  0.00000000E+00  0.00000000E+00  0.00000000E+00
  0.00000000E+00  0.00000000E+00  0.00000000E+00
  0.00000000E+00  0.00000000E+00  0.00000000E+00
  0.00000000E+00  0.00000000E+00  0.00000000E+00
  0.00000000E+00  0.00000000E+00  0.00000000E+00
  0.00000000E+00  0.00000000E+00  0.00000000E+00
  0.00000000E+00  0.00000000E+00  0.00000000E+00
  0.00000000E+00  0.00000000E+00  0.00000000E+00
  0.00000000E+00  0.00000000E+00  0.00000000E+00
  0.00000000E+00  0.00000000E+00  0.00000000E+00
  0.00000000E+00  0.00000000E+00  0.00000000E+00
  0.00000000E+00  0.00000000E+00  0.00000000E+00
  0.00000000E+00  0.00000000E+00  0.00000000E+00
  0.00000000E+00  0.00000000E+00  0.00000000E+00
  0.00000000E+00  0.00000000E+00  0.00000000E+00
  0.00000000E+00  0.00000000E+00  0.00000000E+00
  0.00000000E+00  0.00000000E+00  0.00000000E+00
  0.00000000E+00  0.00000000E+00  0.00000000E+00
  0.00000000E+00  0.00000000E+00  0.00000000E+00
  0.00000000E+00  0.00000000E+00  0.00000000E+00
  0.00000000E+00  0.00000000E+00  0.00000000E+00
  0.00000000E+00  0.00000000E+00  0.00000000E+00
  0.00000000E+00  0.00000000E+00  0.00000000E+00
  0.00000000E+00  0.00000000E+00  0.00000000E+00
  0.00000000E+00  0.00000000E+00  0.00000000E+00
  0.00000000E+00  0.00000000E+00  0.00000000E+00
  0.00000000E+00  0.00000000E+00  0.00000000E+00
  0.00000000E+00  0.00000000E+00  0.00000000E+00
  0.00000000E+00  0.00000000E+00  0.00000000E+00
  0.00000000E+00  0.00000000E+00  0.00000000E+00
  0.00000000E+00  0.00000000E+00  0.00000000E+00
  0.00000000E+00  0.00000000E+00  0.00000000E+00
  0.00000000E+00  0.00000000E+00  0.00000000E+00
  0.00000000E+00  0.00000000E+00  0.00000000E+00
  0.00000000E+00  0.00000000E+00  0.00000000E+00
  0.00000000E+00  0.00000000E+00  0.00000000E+00
  0.00000000E+00  0.00000000E+00  0.00000000E+00
  0.00000000E+00  0.00000000E+00  0.00000000E+00
  0.00000000E+00  0.00000000E+00  0.00000000E+00
  0.00000000E+00  0.00000000E+00  0.00000000E+00
  0.00000000E+00  0.00000000E+00  0.00000000E+00
  0.00000000E+00  0.00000000E+00  0.00000000E+00
  0.00000000E+00  0.00000000E+00  0.00000000E+00
  0.00000000E+00  0.00000000E+00  0.00000000E+00
  0.00000000E+00  0.00000000E+00  0.00000000E+00
  0.00000000E+00  0.00000000E+00  0.00000000E+00
  0.00000000E+00  0.00000000E+00  0.00000000E+00
  0.00000000E+00  0.00000000E+00  0.00000000E+00
  0.00000000E+00  0.00000000E+00  0.00000000E+00
  0.00000000E+00  0.00000000E+00  0.00000000E+00
  0.00000000E+00  0.00000000E+00  0.00000000E+00
  0.00000000E+00  0.00000000E+00  0.00000000E+00
  0.00000000E+00  0.00000000E+00  0.00000000E+00
  0.00000000E+00  0.00000000E+00  0.00000000E+00
  0.00000000E+00  0.00000000E+00  0.00000000E+00
  0.00000000E+00  0.00000000E+00  0.00000000E+00
  0.00000000E+00  0.00000000E+00  0.00000000E+00
  0.00000000E+00  0.00000000E+00  0.00000000E+00
  0.00000000E+00  0.00000000E+00  0.00000000E+00
  0.00000000E+00  0.00000000E+00  0.00000000E+00
  0.00000000E+00  0.00000000E+00  0.00000000E+00
  0.00000000E+00  0.00000000E+00  0.00000000E+00
  0.00000000E+00  0.00000000E+00  0.00000000E+00
  0.00000000E+00  0.00000000E+00  0.00000000E+00
  0.00000000E+00  0.00000000E+00  0.00000000E+00
  0.00000000E+00  0.00000000E+00  0.00000000E+00
  0.00000000E+00  0.00000000E+00  0.00000000E+00
  0.00000000E+00  0.00000000E+00  0.00000000E+00
  0.00000000E+00  0.00000000E+00  0.00000000E+00
  0.00000000E+00  0.00000000E+00  0.00000000E+00
  0.00000000E+00  0.00000000E+00  0.00000000E+00
  0.00000000E+00  0.00000000E+00  0.00000000E+00
  0.00000000E+00  0.00000000E+00  0.00000000E+00
  0.00000000E+00  0.00000000E+00  0.00000000E+00
  0.00000000E+00  0.00000000E+00  0.00000000E+00
  0.00000000E+00  0.00000000E+00  0.00000000E+00
  0.00000000E+00  0.00000000E+00  0.00000000E+00
  0.00000000E+00  0.00000000E+00  0.00000000E+00
  0.00000000E+00  0.00000000E+00  0.00000000E+00
  0.00000000E+00  0.00000000E+00  0.00000000E+00
  0.00000000E+00  0.00000000E+00  0.00000000E+00
  0.00000000E+00  0.00000000E+00  0.00000000E+00
  0.00000000E+00  0.00000000E+00  0.00000000E+00
  0.00000000E+00  0.00000000E+00  0.00000000E+00
  0.00000000E+00  0.00000000E+00  0.00000000E+00
  0.00000000E+00  0.00000000E+00  0.00000000E+00
  0.00000000E+00  0.00000000E+00  0.00000000E+00
  0.00000000E+00  0.00000000E+00  0.00000000E+00
  0.00000000E+00  0.00000000E+00  0.00000000E+00
  0.00000000E+00  0.00000000E+00  0.00000000E+00
  0.00000000E+00  0.00000000E+00  0.00000000E+00
  0.00000000E+00  0.00000000E+00  0.00000000E+00
  0.00000000E+00  0.00000000E+00  0.00000000E+00
  0.00000000E+00  0.00000000E+00  0.00000000E+00
  0.00000000E+00  0.00000000E+00  0.00000000E+00
  0.00000000E+00  0.00000000E+00  0.00000000E+00
  0.00000000E+00  0.00000000E+00  0.00000000E+00
  0.00000000E+00  0.00000000E+00  0.00000000E+00
  0.00000000E+00  0.00000000E+00  0.00000000E+00
  0.00000000E+00  0.00000000E+00  0.00000000E+00
  0.00000000E+00  0.00000000E+00  0.00000000E+00
  0.00000000E+00  0.00000000E+00  0.00000000E+00
  0.00000000E+00  0.00000000E+00  0.00000000E+00
  0.00000000E+00  0.00000000E+00  0.00000000E+00
  0.00000000E+00  0.00000000E+00  0.00000000E+00
