Ir O                                    
   1.00000000000000     
     9.5301189999999991    0.0000000000000000    0.0000000000000000
     0.0000000000000000   12.7429520000000007    0.0000000000000000
     0.0000000000000000    0.0000000000000000   29.9954089999999987
   Ir   O 
    48    99
Selective dynamics
Direct
  0.2926360000000017  0.1224270000000018  0.0406430000000029   F   F   F
  0.2926360000000017  0.3724270000000018  0.1468500000000006   F   F   F
  0.2919181589440568  0.1224807865421914  0.2538645640715226   T   T   T
  0.2909260065727262  0.3734245110533049  0.3592541362450893   T   T   T
  0.1259689999999978  0.3724270000000018  0.0406430000000029   F   F   F
  0.1259689999999978  0.1224270000000018  0.1468500000000006   F   F   F
  0.1253945102284338  0.3725822818688998  0.2534326139581966   T   T   T
  0.1244678977137937  0.1241614825059570  0.3612064884466115   T   T   T
  0.6259689999999978  0.1224270000000018  0.0406430000000029   F   F   F
  0.6259689999999978  0.3724270000000018  0.1468500000000006   F   F   F
  0.6252508346416886  0.1224839869643505  0.2538668401801591   T   T   T
  0.6242403015207247  0.3734315758291566  0.3592456124452936   T   T   T
  0.4593029999999985  0.3724270000000018  0.0406430000000029   F   F   F
  0.4593029999999985  0.1224270000000018  0.1468500000000006   F   F   F
  0.4587296137754941  0.3725771971975329  0.2534323219721671   T   T   T
  0.4577941960427285  0.1241465029679487  0.3612172772014188   T   T   T
  0.9593029999999985  0.1224270000000018  0.0406430000000029   F   F   F
  0.9593029999999985  0.3724270000000018  0.1468500000000006   F   F   F
  0.9585922763294893  0.1224847540874010  0.2538640597708512   T   T   T
  0.9575882378528744  0.3734256616650899  0.3592444138911753   T   T   T
  0.7926360000000017  0.3724270000000018  0.0406430000000029   F   F   F
  0.7926360000000017  0.1224270000000018  0.1468500000000006   F   F   F
  0.7920616962222705  0.3725731322170776  0.2534327292799087   T   T   T
  0.7911339634346520  0.1241651177419315  0.3612093684413661   T   T   T
  0.2926360000000017  0.6224270000000018  0.0406430000000029   F   F   F
  0.2926360000000017  0.8724270000000018  0.1468500000000006   F   F   F
  0.2919298693981918  0.6227058624902500  0.2539250154588279   T   T   T
  0.2913357699681021  0.8733852673944233  0.3626181101427294   T   T   T
  0.1259689999999978  0.8724270000000018  0.0406430000000029   F   F   F
  0.1259689999999978  0.6224270000000018  0.1468500000000006   F   F   F
  0.1252477654816810  0.8725785633046008  0.2536675574899657   T   T   T
  0.1244638007847523  0.6225089869673449  0.3612730840808130   T   T   T
  0.6259689999999978  0.6224270000000018  0.0406430000000029   F   F   F
  0.6259689999999978  0.8724270000000018  0.1468500000000006   F   F   F
  0.6252661187600166  0.6227116885130448  0.2539280511248403   T   T   T
  0.6246793755751014  0.8733887426968417  0.3626128348977634   T   T   T
  0.4593029999999985  0.8724270000000018  0.0406430000000029   F   F   F
  0.4593029999999985  0.6224270000000018  0.1468500000000006   F   F   F
  0.4585908086235896  0.8725752557911313  0.2536656544219071   T   T   T
  0.4577985671971924  0.6225212095429304  0.3612816447423738   T   T   T
  0.9593029999999985  0.6224270000000018  0.0406430000000029   F   F   F
  0.9593029999999985  0.8724270000000018  0.1468500000000006   F   F   F
  0.9585946194338454  0.6227088670104179  0.2539257789530361   T   T   T
  0.9580255987474856  0.8733868349456624  0.3625970269676488   T   T   T
  0.7926360000000017  0.8724270000000018  0.0406430000000029   F   F   F
  0.7926360000000017  0.6224270000000018  0.1468500000000006   F   F   F
  0.7919162008263242  0.8725833444072332  0.2536687336793425   T   T   T
  0.7911351287042458  0.6225196565080374  0.3612719197869996   T   T   T
  0.1259689999999978  0.2180960000000027  0.0406430000000029   F   F   F
  0.1259689999999978  0.4680960000000027  0.1468500000000006   F   F   F
  0.1252884662387377  0.2182260663529839  0.2536838131723498   T   T   T
  0.1243428917911720  0.4679735025680141  0.3633595705280676   T   T   T
  0.1259689999999978  0.0267589999999984  0.0406430000000029   F   F   F
  0.1259689999999978  0.2767589999999984  0.1468500000000006   F   F   F
  0.1252460377947650  0.0265504628998032  0.2535075561742404   T   T   T
  0.1243690428681505  0.2786526946125004  0.3635564040242457   T   T   T
  0.2926360000000017  0.3724270000000018  0.0812859999999986   F   F   F
  0.2926360000000017  0.1224270000000018  0.1874930000000035   F   F   F
  0.2919971109590124  0.3707102920548420  0.2941622580375792   T   T   T
  0.2910750097295480  0.1242294091859224  0.4004682563742952   T   T   T
  0.2926360000000017  0.3724270000000018  0.0000000000000000   F   F   F
  0.2926360000000017  0.1224270000000018  0.1062080000000023   F   F   F
  0.2921620434544568  0.3729964247145467  0.2124252355522149   T   T   T
  0.2912378541880668  0.1245739065277196  0.3194864884708022   T   T   T
  0.4593029999999985  0.2180960000000027  0.0406430000000029   F   F   F
  0.4593029999999985  0.4680960000000027  0.1468500000000006   F   F   F
  0.4585930795279100  0.2182205544522871  0.2536705783638063   T   T   T
  0.4576901205655388  0.4679771269227931  0.3633679630338784   T   T   T
  0.4593029999999985  0.0267589999999984  0.0406430000000029   F   F   F
  0.4593029999999985  0.2767589999999984  0.1468500000000006   F   F   F
  0.4585688275399472  0.0265475410367651  0.2534942309061786   T   T   T
  0.4576517855915992  0.2786368655493888  0.3635529677001207   T   T   T
  0.6259689999999978  0.3724270000000018  0.0812859999999986   F   F   F
  0.6259689999999978  0.1224270000000018  0.1874930000000035   F   F   F
  0.6253244372101743  0.3704113226740223  0.2941529050816794   T   T   T
  0.6244393023337157  0.1241952171229207  0.4004670985160538   T   T   T
  0.6259689999999978  0.3724270000000018  0.0000000000000000   F   F   F
  0.6259689999999978  0.1224270000000018  0.1062080000000023   F   F   F
  0.6255031090944914  0.3729412019324813  0.2124220376765370   T   T   T
  0.6245699237948686  0.1245589659348703  0.3194913948364189   T   T   T
  0.7926360000000017  0.2180960000000027  0.0406430000000029   F   F   F
  0.7926360000000017  0.4680960000000027  0.1468500000000006   F   F   F
  0.7919604242572860  0.2182175792096528  0.2536796375748225   T   T   T
  0.7909904255339654  0.4679751592126229  0.3633484920902718   T   T   T
  0.7926360000000017  0.0267589999999984  0.0406430000000029   F   F   F
  0.7926360000000017  0.2767589999999984  0.1468500000000006   F   F   F
  0.7919022651484035  0.0265593820561543  0.2535036753260497   T   T   T
  0.7910021530533078  0.2786525553859131  0.3635412585482456   T   T   T
  0.9593029999999985  0.3724270000000018  0.0812859999999986   F   F   F
  0.9593029999999985  0.1224270000000018  0.1874930000000035   F   F   F
  0.9586650427537489  0.3705426043821688  0.2941508558991456   T   T   T
  0.9577770838797691  0.1242145327197036  0.4004551739294049   T   T   T
  0.9593029999999985  0.3724270000000018  0.0000000000000000   F   F   F
  0.9593029999999985  0.1224270000000018  0.1062080000000023   F   F   F
  0.9588288980451225  0.3729509795139104  0.2124228338859370   T   T   T
  0.9579136843003224  0.1245954148487231  0.3194817793100648   T   T   T
  0.1259689999999978  0.7180960000000027  0.0406430000000029   F   F   F
  0.1259689999999978  0.9680960000000027  0.1468500000000006   F   F   F
  0.1252586947848670  0.7185994921695015  0.2533328900358586   T   T   T
  0.1246255332255026  0.9692783396961980  0.3579173060044240   T   T   T
  0.1259689999999978  0.5267589999999984  0.0406430000000029   F   F   F
  0.1259689999999978  0.7767589999999984  0.1468500000000006   F   F   F
  0.1252786223618961  0.5268365381666446  0.2540927949975720   T   T   T
  0.1246394374459841  0.7774045619549105  0.3584423664515859   T   T   T
  0.2926360000000017  0.8724270000000018  0.0812859999999986   F   F   F
  0.2926360000000017  0.6224270000000018  0.1874930000000035   F   F   F
  0.2918490676470638  0.8724334028350840  0.2946622105959056   T   T   T
  0.2910589613994166  0.6219293503068124  0.4005461774974342   T   T   T
  0.2926360000000017  0.8724270000000018  0.0000000000000000   F   F   F
  0.2926360000000017  0.6224270000000018  0.1062080000000023   F   F   F
  0.2920472215920863  0.8725961068409293  0.2128010792869399   T   T   T
  0.2912444125715435  0.6218008194917121  0.3195440326643683   T   T   T
  0.4593029999999985  0.7180960000000027  0.0406430000000029   F   F   F
  0.4593029999999985  0.9680960000000027  0.1468500000000006   F   F   F
  0.4585859724506365  0.7185951324022375  0.2533367686731636   T   T   T
  0.4579586262400707  0.9692638940607234  0.3579519809771612   T   T   T
  0.4593029999999985  0.5267589999999984  0.0406430000000029   F   F   F
  0.4593029999999985  0.7767589999999984  0.1468500000000006   F   F   F
  0.4586365556706636  0.5268330942217161  0.2540995812854083   T   T   T
  0.4579694958715992  0.7774173470659249  0.3584714824249857   T   T   T
  0.6259689999999978  0.8724270000000018  0.0812859999999986   F   F   F
  0.6259689999999978  0.6224270000000018  0.1874930000000035   F   F   F
  0.6251537048903857  0.8724317124219348  0.2946645116679759   T   T   T
  0.6244636460577002  0.6219021325045075  0.4005425159400506   T   T   T
  0.6259689999999978  0.8724270000000018  0.0000000000000000   F   F   F
  0.6259689999999978  0.6224270000000018  0.1062080000000023   F   F   F
  0.6253946059720514  0.8725825063268924  0.2127988716058683   T   T   T
  0.6245834969539243  0.6218231936356320  0.3195428931563553   T   T   T
  0.7926360000000017  0.7180960000000027  0.0406430000000029   F   F   F
  0.7926360000000017  0.9680960000000027  0.1468500000000006   F   F   F
  0.7919226862897195  0.7186075329061485  0.2533649595252984   T   T   T
  0.7913273748009808  0.9692764017109404  0.3579338528787227   T   T   T
  0.7926360000000017  0.5267589999999984  0.0406430000000029   F   F   F
  0.7926360000000017  0.7767589999999984  0.1468500000000006   F   F   F
  0.7919483073887317  0.5268338212297821  0.2541205709997300   T   T   T
  0.7913058758322752  0.7774218148326980  0.3584562626844971   T   T   T
  0.9593029999999985  0.8724270000000018  0.0812859999999986   F   F   F
  0.9593029999999985  0.6224270000000018  0.1874930000000035   F   F   F
  0.9584855926369237  0.8724422526314242  0.2946601624755979   T   T   T
  0.9577605090493667  0.6218680621015318  0.4005341550390883   T   T   T
  0.9593029999999985  0.8724270000000018  0.0000000000000000   F   F   F
  0.9593029999999985  0.6224270000000018  0.1062080000000023   F   F   F
  0.9587205323759498  0.8725866733416270  0.2127986721775867   T   T   T
  0.9579095603307288  0.6217999241731185  0.3195390504472322   T   T   T
  0.2909852675234728  0.8746951220780722  0.4222782029703675   T   T   T
  0.9578451574950635  0.8746595793352941  0.4222810464035657   T   T   T
  0.6245471952341531  0.8746582302799115  0.4222923629444010   T   T   T
 
  0.00000000E+00  0.00000000E+00  0.00000000E+00
  0.00000000E+00  0.00000000E+00  0.00000000E+00
  0.00000000E+00  0.00000000E+00  0.00000000E+00
  0.00000000E+00  0.00000000E+00  0.00000000E+00
  0.00000000E+00  0.00000000E+00  0.00000000E+00
  0.00000000E+00  0.00000000E+00  0.00000000E+00
  0.00000000E+00  0.00000000E+00  0.00000000E+00
  0.00000000E+00  0.00000000E+00  0.00000000E+00
  0.00000000E+00  0.00000000E+00  0.00000000E+00
  0.00000000E+00  0.00000000E+00  0.00000000E+00
  0.00000000E+00  0.00000000E+00  0.00000000E+00
  0.00000000E+00  0.00000000E+00  0.00000000E+00
  0.00000000E+00  0.00000000E+00  0.00000000E+00
  0.00000000E+00  0.00000000E+00  0.00000000E+00
  0.00000000E+00  0.00000000E+00  0.00000000E+00
  0.00000000E+00  0.00000000E+00  0.00000000E+00
  0.00000000E+00  0.00000000E+00  0.00000000E+00
  0.00000000E+00  0.00000000E+00  0.00000000E+00
  0.00000000E+00  0.00000000E+00  0.00000000E+00
  0.00000000E+00  0.00000000E+00  0.00000000E+00
  0.00000000E+00  0.00000000E+00  0.00000000E+00
  0.00000000E+00  0.00000000E+00  0.00000000E+00
  0.00000000E+00  0.00000000E+00  0.00000000E+00
  0.00000000E+00  0.00000000E+00  0.00000000E+00
  0.00000000E+00  0.00000000E+00  0.00000000E+00
  0.00000000E+00  0.00000000E+00  0.00000000E+00
  0.00000000E+00  0.00000000E+00  0.00000000E+00
  0.00000000E+00  0.00000000E+00  0.00000000E+00
  0.00000000E+00  0.00000000E+00  0.00000000E+00
  0.00000000E+00  0.00000000E+00  0.00000000E+00
  0.00000000E+00  0.00000000E+00  0.00000000E+00
  0.00000000E+00  0.00000000E+00  0.00000000E+00
  0.00000000E+00  0.00000000E+00  0.00000000E+00
  0.00000000E+00  0.00000000E+00  0.00000000E+00
  0.00000000E+00  0.00000000E+00  0.00000000E+00
  0.00000000E+00  0.00000000E+00  0.00000000E+00
  0.00000000E+00  0.00000000E+00  0.00000000E+00
  0.00000000E+00  0.00000000E+00  0.00000000E+00
  0.00000000E+00  0.00000000E+00  0.00000000E+00
  0.00000000E+00  0.00000000E+00  0.00000000E+00
  0.00000000E+00  0.00000000E+00  0.00000000E+00
  0.00000000E+00  0.00000000E+00  0.00000000E+00
  0.00000000E+00  0.00000000E+00  0.00000000E+00
  0.00000000E+00  0.00000000E+00  0.00000000E+00
  0.00000000E+00  0.00000000E+00  0.00000000E+00
  0.00000000E+00  0.00000000E+00  0.00000000E+00
  0.00000000E+00  0.00000000E+00  0.00000000E+00
  0.00000000E+00  0.00000000E+00  0.00000000E+00
  0.00000000E+00  0.00000000E+00  0.00000000E+00
  0.00000000E+00  0.00000000E+00  0.00000000E+00
  0.00000000E+00  0.00000000E+00  0.00000000E+00
  0.00000000E+00  0.00000000E+00  0.00000000E+00
  0.00000000E+00  0.00000000E+00  0.00000000E+00
  0.00000000E+00  0.00000000E+00  0.00000000E+00
  0.00000000E+00  0.00000000E+00  0.00000000E+00
  0.00000000E+00  0.00000000E+00  0.00000000E+00
  0.00000000E+00  0.00000000E+00  0.00000000E+00
  0.00000000E+00  0.00000000E+00  0.00000000E+00
  0.00000000E+00  0.00000000E+00  0.00000000E+00
  0.00000000E+00  0.00000000E+00  0.00000000E+00
  0.00000000E+00  0.00000000E+00  0.00000000E+00
  0.00000000E+00  0.00000000E+00  0.00000000E+00
  0.00000000E+00  0.00000000E+00  0.00000000E+00
  0.00000000E+00  0.00000000E+00  0.00000000E+00
  0.00000000E+00  0.00000000E+00  0.00000000E+00
  0.00000000E+00  0.00000000E+00  0.00000000E+00
  0.00000000E+00  0.00000000E+00  0.00000000E+00
  0.00000000E+00  0.00000000E+00  0.00000000E+00
  0.00000000E+00  0.00000000E+00  0.00000000E+00
  0.00000000E+00  0.00000000E+00  0.00000000E+00
  0.00000000E+00  0.00000000E+00  0.00000000E+00
  0.00000000E+00  0.00000000E+00  0.00000000E+00
  0.00000000E+00  0.00000000E+00  0.00000000E+00
  0.00000000E+00  0.00000000E+00  0.00000000E+00
  0.00000000E+00  0.00000000E+00  0.00000000E+00
  0.00000000E+00  0.00000000E+00  0.00000000E+00
  0.00000000E+00  0.00000000E+00  0.00000000E+00
  0.00000000E+00  0.00000000E+00  0.00000000E+00
  0.00000000E+00  0.00000000E+00  0.00000000E+00
  0.00000000E+00  0.00000000E+00  0.00000000E+00
  0.00000000E+00  0.00000000E+00  0.00000000E+00
  0.00000000E+00  0.00000000E+00  0.00000000E+00
  0.00000000E+00  0.00000000E+00  0.00000000E+00
  0.00000000E+00  0.00000000E+00  0.00000000E+00
  0.00000000E+00  0.00000000E+00  0.00000000E+00
  0.00000000E+00  0.00000000E+00  0.00000000E+00
  0.00000000E+00  0.00000000E+00  0.00000000E+00
  0.00000000E+00  0.00000000E+00  0.00000000E+00
  0.00000000E+00  0.00000000E+00  0.00000000E+00
  0.00000000E+00  0.00000000E+00  0.00000000E+00
  0.00000000E+00  0.00000000E+00  0.00000000E+00
  0.00000000E+00  0.00000000E+00  0.00000000E+00
  0.00000000E+00  0.00000000E+00  0.00000000E+00
  0.00000000E+00  0.00000000E+00  0.00000000E+00
  0.00000000E+00  0.00000000E+00  0.00000000E+00
  0.00000000E+00  0.00000000E+00  0.00000000E+00
  0.00000000E+00  0.00000000E+00  0.00000000E+00
  0.00000000E+00  0.00000000E+00  0.00000000E+00
  0.00000000E+00  0.00000000E+00  0.00000000E+00
  0.00000000E+00  0.00000000E+00  0.00000000E+00
  0.00000000E+00  0.00000000E+00  0.00000000E+00
  0.00000000E+00  0.00000000E+00  0.00000000E+00
  0.00000000E+00  0.00000000E+00  0.00000000E+00
  0.00000000E+00  0.00000000E+00  0.00000000E+00
  0.00000000E+00  0.00000000E+00  0.00000000E+00
  0.00000000E+00  0.00000000E+00  0.00000000E+00
  0.00000000E+00  0.00000000E+00  0.00000000E+00
  0.00000000E+00  0.00000000E+00  0.00000000E+00
  0.00000000E+00  0.00000000E+00  0.00000000E+00
  0.00000000E+00  0.00000000E+00  0.00000000E+00
  0.00000000E+00  0.00000000E+00  0.00000000E+00
  0.00000000E+00  0.00000000E+00  0.00000000E+00
  0.00000000E+00  0.00000000E+00  0.00000000E+00
  0.00000000E+00  0.00000000E+00  0.00000000E+00
  0.00000000E+00  0.00000000E+00  0.00000000E+00
  0.00000000E+00  0.00000000E+00  0.00000000E+00
  0.00000000E+00  0.00000000E+00  0.00000000E+00
  0.00000000E+00  0.00000000E+00  0.00000000E+00
  0.00000000E+00  0.00000000E+00  0.00000000E+00
  0.00000000E+00  0.00000000E+00  0.00000000E+00
  0.00000000E+00  0.00000000E+00  0.00000000E+00
  0.00000000E+00  0.00000000E+00  0.00000000E+00
  0.00000000E+00  0.00000000E+00  0.00000000E+00
  0.00000000E+00  0.00000000E+00  0.00000000E+00
  0.00000000E+00  0.00000000E+00  0.00000000E+00
  0.00000000E+00  0.00000000E+00  0.00000000E+00
  0.00000000E+00  0.00000000E+00  0.00000000E+00
  0.00000000E+00  0.00000000E+00  0.00000000E+00
  0.00000000E+00  0.00000000E+00  0.00000000E+00
  0.00000000E+00  0.00000000E+00  0.00000000E+00
  0.00000000E+00  0.00000000E+00  0.00000000E+00
  0.00000000E+00  0.00000000E+00  0.00000000E+00
  0.00000000E+00  0.00000000E+00  0.00000000E+00
  0.00000000E+00  0.00000000E+00  0.00000000E+00
  0.00000000E+00  0.00000000E+00  0.00000000E+00
  0.00000000E+00  0.00000000E+00  0.00000000E+00
  0.00000000E+00  0.00000000E+00  0.00000000E+00
  0.00000000E+00  0.00000000E+00  0.00000000E+00
  0.00000000E+00  0.00000000E+00  0.00000000E+00
  0.00000000E+00  0.00000000E+00  0.00000000E+00
  0.00000000E+00  0.00000000E+00  0.00000000E+00
  0.00000000E+00  0.00000000E+00  0.00000000E+00
  0.00000000E+00  0.00000000E+00  0.00000000E+00
  0.00000000E+00  0.00000000E+00  0.00000000E+00
  0.00000000E+00  0.00000000E+00  0.00000000E+00
  0.00000000E+00  0.00000000E+00  0.00000000E+00
  0.00000000E+00  0.00000000E+00  0.00000000E+00
