Ru  O  H 
 1.0000000000000000
     9.3340239999999994    0.0000000000000000    0.0000000000000000
     0.0000000000000000   12.6784260000000000    0.0000000000000000
     0.0000000000000000    0.0000000000000000   29.9755059999999993
 Ru  O   H  
  48  97   1
Selective dynamics
Cartesian
  2.7314714472640156  4.7217881599020224  1.2333421943700060   F   F   F
  2.7314714472640156  1.5521816599020228  4.4029521988099249   F   F   F
  2.7320371156614582  4.7214645349372475  7.6078790060644961   T   T   T
  2.7316389051832202  1.5476228979668845 10.6734212666001707   T   T   T
  1.1757976692559795  1.5521816599020228  1.2333421943700060   F   F   F
  1.1757976692559795  4.7217881599020224  4.4029521988099249   F   F   F
  1.1751425035110832  1.5503725098274792  7.5720967334408540   T   T   T
  1.1747778408939666  4.7130315317798681 10.8807986347395946   T   T   T
  5.8428096692559786  4.7217881599020224  1.2333421943700060   F   F   F
  5.8428096692559786  1.5521816599020228  4.4029521988099249   F   F   F
  5.8424567559921412  4.7199624905402295  7.6089157365979672   T   T   T
  5.8421816373848294  1.5475228575710473 10.6710915611880939   T   T   T
  4.2871452252719857  1.5521816599020228  1.2333421943700060   F   F   F
  4.2871452252719857  4.7217881599020224  4.4029521988099249   F   F   F
  4.2864221574228232  1.5503467579638195  7.5714380458261097   T   T   T
  4.2813952063227045  4.7213183773289620 10.8633537070555946   T   T   T
  8.9541572252719845  4.7217881599020224  1.2333421943700060   F   F   F
  8.9541572252719845  1.5521816599020228  4.4029521988099249   F   F   F
  8.9528134629300062  4.7216261009169127  7.6082069130817258   T   T   T
  8.9514715244931526  1.5477257854285895 10.6734450053251990   T   T   T
  7.3984834472640149  1.5521816599020228  1.2333421943700060   F   F   F
  7.3984834472640149  4.7217881599020224  4.4029521988099249   F   F   F
  7.3981647330995237  1.5505972261077541  7.5713753290268579   T   T   T
  7.4017242173862909  4.7232238721308502 10.8626282869657924   T   T   T
  2.7314714472640156 11.0610011599020233  1.2333421943700060   F   F   F
  2.7314714472640156  7.8913946599020237  4.4029521988099249   F   F   F
  2.7318438131043075 11.0577695123065780  7.6078051487879330   T   T   T
  2.7237007713288697  7.8869032106741219 10.6461841383911526   T   T   T
  1.1757976692559795  7.8913946599020237  1.2333421943700060   F   F   F
  1.1757976692559795 11.0610011599020233  4.4029521988099249   F   F   F
  1.1756402790924501  7.8893545164616556  7.5565043269460350   T   T   T
  1.1744495328326203 11.0603505057296125 10.8810464974501873   T   T   T
  5.8428096692559786 11.0610011599020233  1.2333421943700060   F   F   F
  5.8428096692559786  7.8913946599020237  4.4029521988099249   F   F   F
  5.8423696073553666 11.0597291789958874  7.6088945537239230   T   T   T
  5.8420143813372318  7.8869152193458305 10.8123108539576123   T   T   T
  4.2871452252719857  7.8913946599020237  1.2333421943700060   F   F   F
  4.2871452252719857 11.0610011599020233  4.4029521988099249   F   F   F
  4.3063752981564969  7.8896931000741848  7.5837161261212858   T   T   T
  4.2808858345477558 11.0520401329280880 10.8632844633514054   T   T   T
  8.9541572252719845 11.0610011599020233  1.2333421943700060   F   F   F
  8.9541572252719845  7.8913946599020237  4.4029521988099249   F   F   F
  8.9528944848542213 11.0579522354971456  7.6081506306630473   T   T   T
  8.9563446189685170  7.8866901943840757 10.6458444282491804   T   T   T
  7.3984834472640149  7.8913946599020237  1.2333421943700060   F   F   F
  7.3984834472640149 11.0610011599020233  4.4029521988099249   F   F   F
  7.3787075886604727  7.8897540847016820  7.5832921740493786   T   T   T
  7.4015602911313154 11.0502196010418778 10.8621149408780653   T   T   T
  1.1757976692559795  5.9551327627560280  1.2333421943700060   F   F   F
  1.1757976692559795  2.7855262627560280  4.4029521988099249   F   F   F
  1.1753106955165304  5.9478700716705015  7.5916600155569141   T   T   T
  1.1745000447005494  2.7527257149241229 10.8044259278202333   T   T   T
  1.1757976692559795  3.4884562354739872  1.2333421943700060   F   F   F
  1.1757976692559795  0.3188497354739873  4.4029521988099249   F   F   F
  1.1753050035071577  3.4931231286174675  7.5923154804693143   T   T   T
  1.1744986102568524  0.3424373982083221 10.8028225352020808   T   T   T
  2.7314714472640156  1.5521816599020228  2.4666843887400121   F   F   F
  2.7314714472640156  4.7217881599020224  5.6362943931799308   F   F   F
  2.7305926882103684  1.5498554023487414  8.8034374332870708   T   T   T
  2.7264547573696456  4.7073123613763617 11.9939674646517940   T   T   T
  2.7314714472640156  1.5521816599020228  0.0000000000000000   F   F   F
  2.7314714472640156  4.7217881599020224  3.1696100044399187   F   F   F
  2.7305624506389252  1.5501299826310480  6.3426717847847645   T   T   T
  2.7293215012848289  4.7177562140619118  9.5609956001286118   T   T   T
  4.2871452252719857  5.9551327627560280  1.2333421943700060   F   F   F
  4.2871452252719857  2.7855262627560280  4.4029521988099249   F   F   F
  4.2893443351430403  5.9485549071021140  7.5984556943865584   T   T   T
  4.2868511853606019  2.7554693541237172 10.8020263749894294   T   T   T
  4.2871452252719857  3.4884562354739872  1.2333421943700060   F   F   F
  4.2871452252719857  0.3188497354739873  4.4029521988099249   F   F   F
  4.2856415641620451  3.4917961244043156  7.5947342446440231   T   T   T
  4.2868183314590897  0.3394892950457425 10.8005226842812672   T   T   T
  5.8428096692559786  1.5521816599020228  2.4666843887400121   F   F   F
  5.8428096692559786  4.7217881599020224  5.6362943931799308   F   F   F
  5.8419800081499149  1.5504001366600717  8.8024984765688874   T   T   T
  5.8414089340896993  4.7166054459554747 11.9617717295570785   T   T   T
  5.8428096692559786  1.5521816599020228  0.0000000000000000   F   F   F
  5.8428096692559786  4.7217881599020224  3.1696100044399187   F   F   F
  5.8423759691111252  1.5505139727469530  6.3419902081838293   T   T   T
  5.8412031651855241  4.7159859262814434  9.5608864670069877   T   T   T
  7.3984834472640149  5.9551327627560280  1.2333421943700060   F   F   F
  7.3984834472640149  2.7855262627560280  4.4029521988099249   F   F   F
  7.3957035957683912  5.9488465843201856  7.5993536688276437   T   T   T
  7.3968912634966966  2.7561444287488333 10.8033286995860927   T   T   T
  7.3984834472640149  3.4884562354739872  1.2333421943700060   F   F   F
  7.3984834472640149  0.3188497354739873  4.4029521988099249   F   F   F
  7.3993268999882611  3.4921789545357815  7.5945502703678978   T   T   T
  7.3970466094810847  0.3388187368391193 10.8007703489465374   T   T   T
  8.9541572252719845  1.5521816599020228  2.4666843887400121   F   F   F
  8.9541572252719845  4.7217881599020224  5.6362943931799308   F   F   F
  8.9538740204914813  1.5505261542582054  8.8034057579853968   T   T   T
  8.9576394086128843  4.7080229161295941 11.9930464414008000   T   T   T
  8.9541572252719845  1.5521816599020228  0.0000000000000000   F   F   F
  8.9541572252719845  4.7217881599020224  3.1696100044399187   F   F   F
  8.9540961094055671  1.5506164094601942  6.3424371487281421   T   T   T
  8.9548308117099076  4.7174274246973003  9.5611863005976740   T   T   T
  1.1757976692559795 12.2943457627560271  1.2333421943700060   F   F   F
  1.1757976692559795  9.1247392627560284  4.4029521988099249   F   F   F
  1.1751223072533279 12.2863882022669557  7.5936682013307406   T   T   T
  1.1733575625153432  9.0977394093166168 10.7973392890722124   T   T   T
  1.1757976692559795  9.8276692354739872  1.2333421943700060   F   F   F
  1.1757976692559795  6.6580627354739867  4.4029521988099249   F   F   F
  1.1753169126481566  9.8313509585097396  7.5899971683405294   T   T   T
  1.1735711943647853  6.6756834209045861 10.7955134867575495   T   T   T
  2.7314714472640156  7.8913946599020237  2.4666843887400121   F   F   F
  2.7314714472640156 11.0610011599020233  5.6362943931799308   F   F   F
  2.7365970190878066  7.8889913013196971  8.7833189083599414   T   T   T
  2.7258635510502858 11.0660836559775628 11.9943089200243271   T   T   T
  2.7314714472640156  7.8913946599020237  0.0000000000000000   F   F   F
  2.7314714472640156 11.0610011599020233  3.1696100044399187   F   F   F
  2.7372834129012422  7.8893192315308598  6.3411024419710520   T   T   T
  2.7289033453595071 11.0555332954139853  9.5609891857670721   T   T   T
  4.2871452252719857 12.2943457627560271  1.2333421943700060   F   F   F
  4.2871452252719857  9.1247392627560284  4.4029521988099249   F   F   F
  4.2855800118086371 12.2877535395453918  7.5959920234089724   T   T   T
  4.2707133951262328  9.0944672716712116 10.7969879638480659   T   T   T
  4.2871452252719857  9.8276692354739872  1.2333421943700060   F   F   F
  4.2871452252719857  6.6580627354739867  4.4029521988099249   F   F   F
  4.2890259452046378  9.8310249798144405  7.5972206150055825   T   T   T
  4.2710405371554012  6.6792050194621817 10.7956626120620296   T   T   T
  5.8428096692559786  7.8913946599020237  2.4666843887400121   F   F   F
  5.8428096692559786 11.0610011599020233  5.6362943931799308   F   F   F
  5.8410498753923790  7.8893014404652790  8.8590957180569507   T   T   T
  5.8412472426888407 11.0566475483348672 11.9612281238371825   T   T   T
  5.8428096692559786  7.8913946599020237  0.0000000000000000   F   F   F
  5.8428096692559786 11.0610011599020233  3.1696100044399187   F   F   F
  5.8424732508606549  7.8899109189944401  6.3443254885261799   T   T   T
  5.8408050439242052 11.0581273079075721  9.5608532177364101   T   T   T
  7.3984834472640149 12.2943457627560271  1.2333421943700060   F   F   F
  7.3984834472640149  9.1247392627560284  4.4029521988099249   F   F   F
  7.3993431357949007 12.2877553464171800  7.5968867998423324   T   T   T
  7.4134407861556575  9.0961660415632242 10.7886885264243837   T   T   T
  7.3984834472640149  9.8276692354739872  1.2333421943700060   F   F   F
  7.3984834472640149  6.6580627354739867  4.4029521988099249   F   F   F
  7.3958063363219138  9.8310614752538594  7.5972366302900731   T   T   T
  7.4129909932515110  6.6773101376764314 10.7876224693618834   T   T   T
  8.9541572252719845  7.8913946599020237  2.4666843887400121   F   F   F
  8.9541572252719845 11.0610011599020233  5.6362943931799308   F   F   F
  8.9493238411145288  7.8892584108904105  8.7826894830577373   T   T   T
  8.9571532424177516 11.0662836464725007 11.9931173935841855   T   T   T
  8.9541572252719845  7.8913946599020237  0.0000000000000000   F   F   F
  8.9541572252719845 11.0610011599020233  3.1696100044399187   F   F   F
  8.9490400707277029  7.8896850880204692  6.3405438961891862   T   T   T
  8.9549669672880459 11.0567519308526077  9.5610320546191545   T   T   T
  5.9038802833441055  7.8869829682462127 12.7334538332847274   T   T   T
  5.0095315684335864  7.8914629248320010 13.1302244888824600   T   T   T
