Ru  O                                   
   1.00000000000000     
     9.3340239999999994    0.0000000000000000    0.0000000000000000
     0.0000000000000000   12.6784260000000000    0.0000000000000000
     0.0000000000000000    0.0000000000000000   29.9755059999999993
   Ru   O 
    48    96
Selective dynamics
Direct
  0.2926360000000017  0.3724270000000018  0.0411450000000002   F   F   F
  0.2926360000000017  0.1224270000000018  0.1468849999999975   F   F   F
  0.2926230999228210  0.3722916821309497  0.2538192729852966   T   T   T
  0.2925784376613336  0.1220638846083020  0.3560261017037050   T   T   T
  0.1259689999999978  0.1224270000000018  0.0411450000000002   F   F   F
  0.1259689999999978  0.3724270000000018  0.1468849999999975   F   F   F
  0.1259475761408808  0.1222811920647118  0.2525877897118178   T   T   T
  0.1258982543417773  0.3720460433616566  0.3626910042651943   T   T   T
  0.6259689999999978  0.3724270000000018  0.0411450000000002   F   F   F
  0.6259689999999978  0.1224270000000018  0.1468849999999975   F   F   F
  0.6259668366144879  0.3723116169357041  0.2538307216164171   T   T   T
  0.6259074536306031  0.1220591239819413  0.3560244749705888   T   T   T
  0.4593029999999985  0.1224270000000018  0.0411450000000002   F   F   F
  0.4593029999999985  0.3724270000000018  0.1468849999999975   F   F   F
  0.4592927065415964  0.1222930213533218  0.2525912965321595   T   T   T
  0.4592526611256247  0.3720477946924134  0.3626854442872443   T   T   T
  0.9593029999999985  0.3724270000000018  0.0411450000000002   F   F   F
  0.9593029999999985  0.1224270000000018  0.1468849999999975   F   F   F
  0.9592878545968446  0.3723027670546131  0.2538279411268363   T   T   T
  0.9592255983491711  0.1220638610620313  0.3560292361083484   T   T   T
  0.7926360000000017  0.1224270000000018  0.0411450000000002   F   F   F
  0.7926360000000017  0.3724270000000018  0.1468849999999975   F   F   F
  0.7926309856658662  0.1223081561524069  0.2525884077573650   T   T   T
  0.7925918857301255  0.3720488276534155  0.3627017622610964   T   T   T
  0.2926360000000017  0.8724270000000018  0.0411450000000002   F   F   F
  0.2926360000000017  0.6224270000000018  0.1468849999999975   F   F   F
  0.2926231710753697  0.8722914660846541  0.2538194685696027   T   T   T
  0.2925784408220906  0.6220638633554074  0.3560272384432324   T   T   T
  0.1259689999999978  0.6224270000000018  0.0411450000000002   F   F   F
  0.1259689999999978  0.8724270000000018  0.1468849999999975   F   F   F
  0.1259478361108322  0.6222813500792981  0.2525883976042991   T   T   T
  0.1258975357402790  0.8720464756222626  0.3626908971468552   T   T   T
  0.6259689999999978  0.8724270000000018  0.0411450000000002   F   F   F
  0.6259689999999978  0.6224270000000018  0.1468849999999975   F   F   F
  0.6259668861873848  0.8723113712549448  0.2538308231311746   T   T   T
  0.6259076561886872  0.6220588842517785  0.3560254820369551   T   T   T
  0.4593029999999985  0.6224270000000018  0.0411450000000002   F   F   F
  0.4593029999999985  0.8724270000000018  0.1468849999999975   F   F   F
  0.4592911705305482  0.6222926896766054  0.2525917207216253   T   T   T
  0.4592522418880449  0.8720479521925242  0.3626857516052553   T   T   T
  0.9593029999999985  0.8724270000000018  0.0411450000000002   F   F   F
  0.9593029999999985  0.6224270000000018  0.1468849999999975   F   F   F
  0.9592876849996088  0.8723024786481659  0.2538280717285133   T   T   T
  0.9592264950838540  0.6220634656720634  0.3560304184563705   T   T   T
  0.7926360000000017  0.6224270000000018  0.0411450000000002   F   F   F
  0.7926360000000017  0.8724270000000018  0.1468849999999975   F   F   F
  0.7926308061518768  0.6223081109720781  0.2525889830274224   T   T   T
  0.7925912947669218  0.8720493497231985  0.3627020666063530   T   T   T
  0.1259689999999978  0.4697060000000022  0.0411450000000002   F   F   F
  0.1259689999999978  0.2197060000000022  0.1468849999999975   F   F   F
  0.1259262916040882  0.4691344152782904  0.2533811726741817   T   T   T
  0.1258662840289233  0.2173002381081801  0.3604032605674519   T   T   T
  0.1259689999999978  0.2751489999999990  0.0411450000000002   F   F   F
  0.1259689999999978  0.0251489999999990  0.1468849999999975   F   F   F
  0.1259461384614511  0.2754604631536424  0.2533295354338705   T   T   T
  0.1258867395689762  0.0268128831476346  0.3603480602513685   T   T   T
  0.2926360000000017  0.1224270000000018  0.0822900000000004   F   F   F
  0.2926360000000017  0.3724270000000018  0.1880299999999977   F   F   F
  0.2926077616757681  0.1222495182867220  0.2936516017076869   T   T   T
  0.2925759325548185  0.3720240087698343  0.3998669327549536   T   T   T
  0.2926360000000017  0.1224270000000018  0.0000000000000000   F   F   F
  0.2926360000000017  0.3724270000000018  0.1057399999999973   F   F   F
  0.2926319273473368  0.1222709358590706  0.2115902956170430   T   T   T
  0.2925781259964495  0.3720536000113270  0.3190216044698175   T   T   T
  0.4593029999999985  0.4697060000000022  0.0411450000000002   F   F   F
  0.4593029999999985  0.2197060000000022  0.1468849999999975   F   F   F
  0.4593171467060699  0.4691444021755302  0.2533824748476476   T   T   T
  0.4592663307295197  0.2173033820035855  0.3603876835554729   T   T   T
  0.4593029999999985  0.2751489999999990  0.0411450000000002   F   F   F
  0.4593029999999985  0.0251489999999990  0.1468849999999975   F   F   F
  0.4593090962101201  0.2754704093486637  0.2533399176173816   T   T   T
  0.4592571294763701  0.0268118888425519  0.3603432241247120   T   T   T
  0.6259689999999978  0.1224270000000018  0.0822900000000004   F   F   F
  0.6259689999999978  0.3724270000000018  0.1880299999999977   F   F   F
  0.6259319675025381  0.1222855422489317  0.2936492601220451   T   T   T
  0.6259245829495299  0.3720700273058384  0.3998861067545505   T   T   T
  0.6259689999999978  0.1224270000000018  0.0000000000000000   F   F   F
  0.6259689999999978  0.3724270000000018  0.1057399999999973   F   F   F
  0.6259587510289464  0.1223000104861072  0.2115823057518043   T   T   T
  0.6259331996292516  0.3720877437750687  0.3190248159699394   T   T   T
  0.7926360000000017  0.4697060000000022  0.0411450000000002   F   F   F
  0.7926360000000017  0.2197060000000022  0.1468849999999975   F   F   F
  0.7926339965776990  0.4691532559052973  0.2534116417991683   T   T   T
  0.7925709589568157  0.2173083857027223  0.3604044630040377   T   T   T
  0.7926360000000017  0.2751489999999990  0.0411450000000002   F   F   F
  0.7926360000000017  0.0251489999999990  0.1468849999999975   F   F   F
  0.7926266003435742  0.2754873044810964  0.2533277325358156   T   T   T
  0.7925786891833653  0.0267948518729852  0.3603365650893551   T   T   T
  0.9593029999999985  0.1224270000000018  0.0822900000000004   F   F   F
  0.9593029999999985  0.3724270000000018  0.1880299999999977   F   F   F
  0.9593020509838297  0.1222929386009497  0.2936522806914326   T   T   T
  0.9592464105911205  0.3720734006837318  0.3998981731668820   T   T   T
  0.9593029999999985  0.1224270000000018  0.0000000000000000   F   F   F
  0.9593029999999985  0.3724270000000018  0.1057399999999973   F   F   F
  0.9592907046848538  0.1223060545759296  0.2115808204886349   T   T   T
  0.9592654213301870  0.3720785936987525  0.3190237080558944   T   T   T
  0.1259689999999978  0.9697060000000022  0.0411450000000002   F   F   F
  0.1259689999999978  0.7197060000000022  0.1468849999999975   F   F   F
  0.1259263097029191  0.9691343004960373  0.2533811015056529   T   T   T
  0.1258659354585703  0.7172999628318237  0.3604052123251549   T   T   T
  0.1259689999999978  0.7751489999999990  0.0411450000000002   F   F   F
  0.1259689999999978  0.5251489999999990  0.1468849999999975   F   F   F
  0.1259460738106455  0.7754605331223559  0.2533298470603853   T   T   T
  0.1258872446497250  0.5268128609515514  0.3603491989447747   T   T   T
  0.2926360000000017  0.6224270000000018  0.0822900000000004   F   F   F
  0.2926360000000017  0.8724270000000018  0.1880299999999977   F   F   F
  0.2926076830715516  0.6222498732748178  0.2936526779407558   T   T   T
  0.2925756862333984  0.8720260414552499  0.3998670360952374   T   T   T
  0.2926360000000017  0.6224270000000018  0.0000000000000000   F   F   F
  0.2926360000000017  0.8724270000000018  0.1057399999999973   F   F   F
  0.2926316782817437  0.6222711181402047  0.2115907129303736   T   T   T
  0.2925779174950733  0.8720521590221182  0.3190217717075328   T   T   T
  0.4593029999999985  0.9697060000000022  0.0411450000000002   F   F   F
  0.4593029999999985  0.7197060000000022  0.1468849999999975   F   F   F
  0.4593172047717928  0.9691442291296539  0.2533825617614340   T   T   T
  0.4592665443562893  0.7173033051618773  0.3603894806558188   T   T   T
  0.4593029999999985  0.7751489999999990  0.0411450000000002   F   F   F
  0.4593029999999985  0.5251489999999990  0.1468849999999975   F   F   F
  0.4593090794904739  0.7754701198514695  0.2533399855093350   T   T   T
  0.4592576257686218  0.5268115974910259  0.3603444825612527   T   T   T
  0.6259689999999978  0.6224270000000018  0.0822900000000004   F   F   F
  0.6259689999999978  0.8724270000000018  0.1880299999999977   F   F   F
  0.6259317600812011  0.6222856578255858  0.2936502084287795   T   T   T
  0.6259244400757780  0.8720730766179372  0.3998865299070218   T   T   T
  0.6259689999999978  0.6224270000000018  0.0000000000000000   F   F   F
  0.6259689999999978  0.8724270000000018  0.1057399999999973   F   F   F
  0.6259590339414771  0.6223000451748177  0.2115826491679442   T   T   T
  0.6259330974594448  0.8720865790139030  0.3190249786963122   T   T   T
  0.7926360000000017  0.9697060000000022  0.0411450000000002   F   F   F
  0.7926360000000017  0.7197060000000022  0.1468849999999975   F   F   F
  0.7926338788192453  0.9691531090057381  0.2534116066993590   T   T   T
  0.7925711633301020  0.7173088345673975  0.3604059164172995   T   T   T
  0.7926360000000017  0.7751489999999990  0.0411450000000002   F   F   F
  0.7926360000000017  0.5251489999999990  0.1468849999999975   F   F   F
  0.7926265859460813  0.7754871402233050  0.2533279476424610   T   T   T
  0.7925786754560136  0.5267946876159471  0.3603375077137230   T   T   T
  0.9593029999999985  0.6224270000000018  0.0822900000000004   F   F   F
  0.9593029999999985  0.8724270000000018  0.1880299999999977   F   F   F
  0.9593019095462267  0.6222930827227771  0.2936533160415138   T   T   T
  0.9592459131584405  0.8720759731773953  0.3998983164525498   T   T   T
  0.9593029999999985  0.6224270000000018  0.0000000000000000   F   F   F
  0.9593029999999985  0.8724270000000018  0.1057399999999973   F   F   F
  0.9592908442130792  0.6223061040670430  0.2115812433119544   T   T   T
  0.9592652972683169  0.8720773437218838  0.3190238216383747   T   T   T
 
  0.00000000E+00  0.00000000E+00  0.00000000E+00
  0.00000000E+00  0.00000000E+00  0.00000000E+00
  0.00000000E+00  0.00000000E+00  0.00000000E+00
  0.00000000E+00  0.00000000E+00  0.00000000E+00
  0.00000000E+00  0.00000000E+00  0.00000000E+00
  0.00000000E+00  0.00000000E+00  0.00000000E+00
  0.00000000E+00  0.00000000E+00  0.00000000E+00
  0.00000000E+00  0.00000000E+00  0.00000000E+00
  0.00000000E+00  0.00000000E+00  0.00000000E+00
  0.00000000E+00  0.00000000E+00  0.00000000E+00
  0.00000000E+00  0.00000000E+00  0.00000000E+00
  0.00000000E+00  0.00000000E+00  0.00000000E+00
  0.00000000E+00  0.00000000E+00  0.00000000E+00
  0.00000000E+00  0.00000000E+00  0.00000000E+00
  0.00000000E+00  0.00000000E+00  0.00000000E+00
  0.00000000E+00  0.00000000E+00  0.00000000E+00
  0.00000000E+00  0.00000000E+00  0.00000000E+00
  0.00000000E+00  0.00000000E+00  0.00000000E+00
  0.00000000E+00  0.00000000E+00  0.00000000E+00
  0.00000000E+00  0.00000000E+00  0.00000000E+00
  0.00000000E+00  0.00000000E+00  0.00000000E+00
  0.00000000E+00  0.00000000E+00  0.00000000E+00
  0.00000000E+00  0.00000000E+00  0.00000000E+00
  0.00000000E+00  0.00000000E+00  0.00000000E+00
  0.00000000E+00  0.00000000E+00  0.00000000E+00
  0.00000000E+00  0.00000000E+00  0.00000000E+00
  0.00000000E+00  0.00000000E+00  0.00000000E+00
  0.00000000E+00  0.00000000E+00  0.00000000E+00
  0.00000000E+00  0.00000000E+00  0.00000000E+00
  0.00000000E+00  0.00000000E+00  0.00000000E+00
  0.00000000E+00  0.00000000E+00  0.00000000E+00
  0.00000000E+00  0.00000000E+00  0.00000000E+00
  0.00000000E+00  0.00000000E+00  0.00000000E+00
  0.00000000E+00  0.00000000E+00  0.00000000E+00
  0.00000000E+00  0.00000000E+00  0.00000000E+00
  0.00000000E+00  0.00000000E+00  0.00000000E+00
  0.00000000E+00  0.00000000E+00  0.00000000E+00
  0.00000000E+00  0.00000000E+00  0.00000000E+00
  0.00000000E+00  0.00000000E+00  0.00000000E+00
  0.00000000E+00  0.00000000E+00  0.00000000E+00
  0.00000000E+00  0.00000000E+00  0.00000000E+00
  0.00000000E+00  0.00000000E+00  0.00000000E+00
  0.00000000E+00  0.00000000E+00  0.00000000E+00
  0.00000000E+00  0.00000000E+00  0.00000000E+00
  0.00000000E+00  0.00000000E+00  0.00000000E+00
  0.00000000E+00  0.00000000E+00  0.00000000E+00
  0.00000000E+00  0.00000000E+00  0.00000000E+00
  0.00000000E+00  0.00000000E+00  0.00000000E+00
  0.00000000E+00  0.00000000E+00  0.00000000E+00
  0.00000000E+00  0.00000000E+00  0.00000000E+00
  0.00000000E+00  0.00000000E+00  0.00000000E+00
  0.00000000E+00  0.00000000E+00  0.00000000E+00
  0.00000000E+00  0.00000000E+00  0.00000000E+00
  0.00000000E+00  0.00000000E+00  0.00000000E+00
  0.00000000E+00  0.00000000E+00  0.00000000E+00
  0.00000000E+00  0.00000000E+00  0.00000000E+00
  0.00000000E+00  0.00000000E+00  0.00000000E+00
  0.00000000E+00  0.00000000E+00  0.00000000E+00
  0.00000000E+00  0.00000000E+00  0.00000000E+00
  0.00000000E+00  0.00000000E+00  0.00000000E+00
  0.00000000E+00  0.00000000E+00  0.00000000E+00
  0.00000000E+00  0.00000000E+00  0.00000000E+00
  0.00000000E+00  0.00000000E+00  0.00000000E+00
  0.00000000E+00  0.00000000E+00  0.00000000E+00
  0.00000000E+00  0.00000000E+00  0.00000000E+00
  0.00000000E+00  0.00000000E+00  0.00000000E+00
  0.00000000E+00  0.00000000E+00  0.00000000E+00
  0.00000000E+00  0.00000000E+00  0.00000000E+00
  0.00000000E+00  0.00000000E+00  0.00000000E+00
  0.00000000E+00  0.00000000E+00  0.00000000E+00
  0.00000000E+00  0.00000000E+00  0.00000000E+00
  0.00000000E+00  0.00000000E+00  0.00000000E+00
  0.00000000E+00  0.00000000E+00  0.00000000E+00
  0.00000000E+00  0.00000000E+00  0.00000000E+00
  0.00000000E+00  0.00000000E+00  0.00000000E+00
  0.00000000E+00  0.00000000E+00  0.00000000E+00
  0.00000000E+00  0.00000000E+00  0.00000000E+00
  0.00000000E+00  0.00000000E+00  0.00000000E+00
  0.00000000E+00  0.00000000E+00  0.00000000E+00
  0.00000000E+00  0.00000000E+00  0.00000000E+00
  0.00000000E+00  0.00000000E+00  0.00000000E+00
  0.00000000E+00  0.00000000E+00  0.00000000E+00
  0.00000000E+00  0.00000000E+00  0.00000000E+00
  0.00000000E+00  0.00000000E+00  0.00000000E+00
  0.00000000E+00  0.00000000E+00  0.00000000E+00
  0.00000000E+00  0.00000000E+00  0.00000000E+00
  0.00000000E+00  0.00000000E+00  0.00000000E+00
  0.00000000E+00  0.00000000E+00  0.00000000E+00
  0.00000000E+00  0.00000000E+00  0.00000000E+00
  0.00000000E+00  0.00000000E+00  0.00000000E+00
  0.00000000E+00  0.00000000E+00  0.00000000E+00
  0.00000000E+00  0.00000000E+00  0.00000000E+00
  0.00000000E+00  0.00000000E+00  0.00000000E+00
  0.00000000E+00  0.00000000E+00  0.00000000E+00
  0.00000000E+00  0.00000000E+00  0.00000000E+00
  0.00000000E+00  0.00000000E+00  0.00000000E+00
  0.00000000E+00  0.00000000E+00  0.00000000E+00
  0.00000000E+00  0.00000000E+00  0.00000000E+00
  0.00000000E+00  0.00000000E+00  0.00000000E+00
  0.00000000E+00  0.00000000E+00  0.00000000E+00
  0.00000000E+00  0.00000000E+00  0.00000000E+00
  0.00000000E+00  0.00000000E+00  0.00000000E+00
  0.00000000E+00  0.00000000E+00  0.00000000E+00
  0.00000000E+00  0.00000000E+00  0.00000000E+00
  0.00000000E+00  0.00000000E+00  0.00000000E+00
  0.00000000E+00  0.00000000E+00  0.00000000E+00
  0.00000000E+00  0.00000000E+00  0.00000000E+00
  0.00000000E+00  0.00000000E+00  0.00000000E+00
  0.00000000E+00  0.00000000E+00  0.00000000E+00
  0.00000000E+00  0.00000000E+00  0.00000000E+00
  0.00000000E+00  0.00000000E+00  0.00000000E+00
  0.00000000E+00  0.00000000E+00  0.00000000E+00
  0.00000000E+00  0.00000000E+00  0.00000000E+00
  0.00000000E+00  0.00000000E+00  0.00000000E+00
  0.00000000E+00  0.00000000E+00  0.00000000E+00
  0.00000000E+00  0.00000000E+00  0.00000000E+00
  0.00000000E+00  0.00000000E+00  0.00000000E+00
  0.00000000E+00  0.00000000E+00  0.00000000E+00
  0.00000000E+00  0.00000000E+00  0.00000000E+00
  0.00000000E+00  0.00000000E+00  0.00000000E+00
  0.00000000E+00  0.00000000E+00  0.00000000E+00
  0.00000000E+00  0.00000000E+00  0.00000000E+00
  0.00000000E+00  0.00000000E+00  0.00000000E+00
  0.00000000E+00  0.00000000E+00  0.00000000E+00
  0.00000000E+00  0.00000000E+00  0.00000000E+00
  0.00000000E+00  0.00000000E+00  0.00000000E+00
  0.00000000E+00  0.00000000E+00  0.00000000E+00
  0.00000000E+00  0.00000000E+00  0.00000000E+00
  0.00000000E+00  0.00000000E+00  0.00000000E+00
  0.00000000E+00  0.00000000E+00  0.00000000E+00
  0.00000000E+00  0.00000000E+00  0.00000000E+00
  0.00000000E+00  0.00000000E+00  0.00000000E+00
  0.00000000E+00  0.00000000E+00  0.00000000E+00
  0.00000000E+00  0.00000000E+00  0.00000000E+00
  0.00000000E+00  0.00000000E+00  0.00000000E+00
  0.00000000E+00  0.00000000E+00  0.00000000E+00
  0.00000000E+00  0.00000000E+00  0.00000000E+00
  0.00000000E+00  0.00000000E+00  0.00000000E+00
  0.00000000E+00  0.00000000E+00  0.00000000E+00
  0.00000000E+00  0.00000000E+00  0.00000000E+00
  0.00000000E+00  0.00000000E+00  0.00000000E+00
  0.00000000E+00  0.00000000E+00  0.00000000E+00
  0.00000000E+00  0.00000000E+00  0.00000000E+00
  0.00000000E+00  0.00000000E+00  0.00000000E+00
