Ru  O 
 1.0000000000000000
     9.3340239999999994    0.0000000000000000    0.0000000000000000
     0.0000000000000000   12.6784260000000000    0.0000000000000000
     0.0000000000000000    0.0000000000000000   29.9755059999999993
 Ru  O  
  48  96
Selective dynamics
Cartesian
  2.7314714472640156  4.7217881599020224  1.2333421943700060   F   F   F
  2.7314714472640156  1.5521816599020228  4.4029521988099249   F   F   F
  2.7313510376339929  4.7200725423127610  7.6083611402862976   T   T   T
  2.7309341590133958  1.5475779282788837 10.6720625477759210   T   T   T
  1.1757976692559795  1.5521816599020228  1.2333421943700060   F   F   F
  1.1757976692559795  4.7217881599020224  4.4029521988099249   F   F   F
  1.1755976984408081  1.5503330447842261  7.5714468060332543   T   T   T
  1.1751373275842858  4.7169582293535770 10.8718463744974034   T   T   T
  5.8428096692559786  4.7217881599020224  1.2333421943700060   F   F   F
  5.8428096692559786  1.5521816599020228  4.4029521988099249   F   F   F
  5.8427894761636869  4.7203252842596743  7.6087043187973009   T   T   T
  5.8422351939669470  1.5475175710299101 10.6720137856277120   T   T   T
  4.2871452252719857  1.5521816599020228  1.2333421943700060   F   F   F
  4.2871452252719857  4.7217881599020224  4.4029521988099249   F   F   F
  4.2870491458841986  1.5504830215444989  7.5715519247475074   T   T   T
  4.2866753610104400  4.7169804334709839 10.8716797113449779   T   T   T
  8.9541572252719845  4.7217881599020224  1.2333421943700060   F   F   F
  8.9541572252719845  1.5521816599020228  4.4029521988099249   F   F   F
  8.9540158577154383  4.7202130816971657  7.6086209722151779   T   T   T
  8.9534347564055334  1.5475776297492088 10.6721565031412080   T   T   T
  7.3984834472640149  1.5521816599020228  1.2333421943700060   F   F   F
  7.3984834472640149  4.7217881599020224  4.4029521988099249   F   F   F
  7.3984366433488526  1.5506749069746903  7.5714653322613445   T   T   T
  7.3980716836102669  4.7169935297905994 10.8721688508680003   T   T   T
  2.7314714472640156 11.0610011599020233  1.2333421943700060   F   F   F
  2.7314714472640156  7.8913946599020237  4.4029521988099249   F   F   F
  2.7313517017735949 11.0592828031857628  7.6083670030249211   T   T   T
  2.7309341885159570  7.8867906588256353 10.6720966221186231   T   T   T
  1.1757976692559795  7.8913946599020237  1.2333421943700060   F   F   F
  1.1757976692559795 11.0610011599020233  4.4029521988099249   F   F   F
  1.1756001250065837  7.8895480481604467  7.5714650279180091   T   T   T
  1.1751306201406186 11.0561767097376578 10.8718431635709987   T   T   T
  5.8428096692559786 11.0610011599020233  1.2333421943700060   F   F   F
  5.8428096692559786  7.8913946599020237  4.4029521988099249   F   F   F
  5.8427899388783189 11.0595351694143478  7.6087073617535168   T   T   T
  5.8422370846489811  7.8867275316287664 10.6720439729516716   T   T   T
  4.2871452252719857  7.8913946599020237  1.2333421943700060   F   F   F
  4.2871452252719857 11.0610011599020233  4.4029521988099249   F   F   F
  4.2870348087202172  7.8896918164058336  7.5715646400414878   T   T   T
  4.2866714478368335 11.0561954303244789 10.8716889233577518   T   T   T
  8.9541572252719845 11.0610011599020233  1.2333421943700060   F   F   F
  8.9541572252719845  7.8913946599020237  4.4029521988099249   F   F   F
  8.9540142746907794 11.0594224251573134  7.6086248870665223   T   T   T
  8.9534431265485832  7.8867856168267805 10.6721919446214795   T   T   T
  7.3984834472640149  7.8913946599020237  1.2333421943700060   F   F   F
  7.3984834472640149 11.0610011599020233  4.4029521988099249   F   F   F
  7.3984349677609513  7.8898873341592513  7.5714825762724915   T   T   T
  7.3980661675454966 11.0562131488137307 10.8721779737710964   T   T   T
  1.1757976692559795  5.9551327627560280  1.2333421943700060   F   F   F
  1.1757976692559795  2.7855262627560280  4.4029521988099249   F   F   F
  1.1753990280635540  5.9478859681590412  7.5952288617819974   T   T   T
  1.1748389159167607  2.7550249886369054 10.8032700995592830   T   T   T
  1.1757976692559795  3.4884562354739872  1.2333421943700060   F   F   F
  1.1757976692559795  0.3188497354739873  4.4029521988099249   F   F   F
  1.1755842791065354  3.4924050980192050  7.5936810093750955   T   T   T
  1.1750298484185777  0.3399451548339218 10.8016154421533628   T   T   T
  2.7314714472640156  1.5521816599020228  2.4666843887400121   F   F   F
  2.7314714472640156  4.7217881599020224  5.6362943931799308   F   F   F
  2.7312078700678715  1.5499314711338315  8.8023553488984625   T   T   T
  2.7309107762890625  4.7166788654116916 11.9862136419977663   T   T   T
  2.7314714472640156  1.5521816599020228  0.0000000000000000   F   F   F
  2.7314714472640156  4.7217881599020224  3.1696100044399187   F   F   F
  2.7314334330263015  1.5502030122399957  6.3425261758104234   T   T   T
  2.7309312499258791  4.7170540357772506  9.5628340189146144   T   T   T
  4.2871452252719857  5.9551327627560280  1.2333421943700060   F   F   F
  4.2871452252719857  2.7855262627560280  4.4029521988099249   F   F   F
  4.2872772709659550  5.9480125862966711  7.5952678950905232   T   T   T
  4.2868029534213017  2.7550648482821520 10.8028031707431023   T   T   T
  4.2871452252719857  3.4884562354739872  1.2333421943700060   F   F   F
  4.2871452252719857  0.3188497354739873  4.4029521988099249   F   F   F
  4.2872021274435879  3.4925312001167432  7.5939922205792314   T   T   T
  4.2867170687035436  0.3399325486105393 10.8014704768096781   T   T   T
  5.8428096692559786  1.5521816599020228  2.4666843887400121   F   F   F
  5.8428096692559786  4.7217881599020224  5.6362943931799308   F   F   F
  5.8424640070359137  1.5503881982729473  8.8022851586839916   T   T   T
  5.8423950794409123  4.7172623080150089 11.9867883923376244   T   T   T
  5.8428096692559786  1.5521816599020228  0.0000000000000000   F   F   F
  5.8428096692559786  4.7217881599020224  3.1696100044399187   F   F   F
  5.8427140051141864  1.5505716327473111  6.3422866755571397   T   T   T
  5.8424755077362196  4.7174869249591600  9.5629302852559182   T   T   T
  7.3984834472640149  5.9551327627560280  1.2333421943700060   F   F   F
  7.3984834472640149  2.7855262627560280  4.4029521988099249   F   F   F
  7.3984647472721656  5.9481248376544054  7.5961421892208358   T   T   T
  7.3978763526059668  2.7551282873113974 10.8033061432043596   T   T   T
  7.3984834472640149  3.4884562354739872  1.2333421943700060   F   F   F
  7.3984834472640149  0.3188497354739873  4.4029521988099249   F   F   F
  7.3983957106453371  3.4927454038030508  7.5936269665937557   T   T   T
  7.3979485067260748  0.3397165466526260 10.8012708688553634   T   T   T
  8.9541572252719845  1.5521816599020228  2.4666843887400121   F   F   F
  8.9541572252719845  4.7217881599020224  5.6362943931799308   F   F   F
  8.9541483671322784  1.5504819723746848  8.8023757017797539   T   T   T
  8.9536290183713483  4.7173050771370422 11.9871500891528857   T   T   T
  8.9541572252719845  1.5521816599020228  0.0000000000000000   F   F   F
  8.9541572252719845  4.7217881599020224  3.1696100044399187   F   F   F
  8.9540424605053559  1.5506482622928688  6.3422421540418954   T   T   T
  8.9538064650660711  4.7173709163936879  9.5628970749717013   T   T   T
  1.1757976692559795 12.2943457627560271  1.2333421943700060   F   F   F
  1.1757976692559795  9.1247392627560284  4.4029521988099249   F   F   F
  1.1753991969984576 12.2870975129007913  7.5952267284694113   T   T   T
  1.1748356623527270  9.0942344985660597 10.8033286044839159   T   T   T
  1.1757976692559795  9.8276692354739872  1.2333421943700060   F   F   F
  1.1757976692559795  6.6580627354739867  4.4029521988099249   F   F   F
  1.1755836756543641  9.8316189851123443  7.5936903505376740   T   T   T
  1.1750345628543950  6.6791578734225086 10.8016495750643315   T   T   T
  2.7314714472640156  7.8913946599020237  2.4666843887400121   F   F   F
  2.7314714472640156 11.0610011599020233  5.6362943931799308   F   F   F
  2.7312071363742354  7.8891489718241745  8.8023876095291040   T   T   T
  2.7309084771190020 11.0559176366633576 11.9862167396750667   T   T   T
  2.7314714472640156  7.8913946599020237  0.0000000000000000   F   F   F
  2.7314714472640156 11.0610011599020233  3.1696100044399187   F   F   F
  2.7314311082420968  7.8894183232778685  6.3425386849886465   T   T   T
  2.7309293037690558 11.0562487663021720  9.5628390319497907   T   T   T
  4.2871452252719857 12.2943457627560271  1.2333421943700060   F   F   F
  4.2871452252719857  9.1247392627560284  4.4029521988099249   F   F   F
  4.2872778129528548 12.2872233923473662  7.5952705003753129   T   T   T
  4.2868049474186423  9.0942768740503208 10.8028570397353327   T   T   T
  4.2871452252719857  9.8276692354739872  1.2333421943700060   F   F   F
  4.2871452252719857  6.6580627354739867  4.4029521988099249   F   F   F
  4.2872019713820215  9.8317405297480231  7.5939942556750006   T   T   T
  4.2867217011073606  6.6791418547317862 10.8015081990817059   T   T   T
  5.8428096692559786  7.8913946599020237  2.4666843887400121   F   F   F
  5.8428096692559786 11.0610011599020233  5.6362943931799308   F   F   F
  5.8424620709601944  7.8896026636029859  8.8023135846580427   T   T   T
  5.8423937458538422 11.0565139684928262 11.9868010765470121   T   T   T
  5.8428096692559786  7.8913946599020237  0.0000000000000000   F   F   F
  5.8428096692559786 11.0610011599020233  3.1696100044399187   F   F   F
  5.8427166458265587  7.8897850725455552  6.3422969696296603   T   T   T
  5.8424745540807983 11.0566851576209135  9.5629351630612796   T   T   T
  7.3984834472640149 12.2943457627560271  1.2333421943700060   F   F   F
  7.3984834472640149  9.1247392627560284  4.4029521988099249   F   F   F
  7.3984636481119610 12.2873359751991806  7.5961411370861756   T   T   T
  7.3978782602310691  9.0943469782090247 10.8033497100023261   T   T   T
  7.3984834472640149  9.8276692354739872  1.2333421943700060   F   F   F
  7.3984834472640149  6.6580627354739867  4.4029521988099249   F   F   F
  7.3983955762587597  9.8319563212728305  7.5936334145242546   T   T   T
  7.3979483785946325  6.6789274641318954 10.8012991244976888   T   T   T
  8.9541572252719845  7.8913946599020237  2.4666843887400121   F   F   F
  8.9541572252719845 11.0610011599020233  5.6362943931799308   F   F   F
  8.9541470469503128  7.8896967996125857  8.8024067369222152   T   T   T
  8.9536243753227751 11.0565506923075638 11.9871543842132517   T   T   T
  8.9541572252719845  7.8913946599020237  0.0000000000000000   F   F   F
  8.9541572252719845 11.0610011599020233  3.1696100044399187   F   F   F
  8.9540437628651102  7.8898618897623090  6.3422548283850206   T   T   T
  8.9538053070695796 11.0565680686544727  9.5629004796641350   T   T   T
