Converted by xsd2pos.py
1.0
     9.53011872     0.00000000     0.00000000
     0.00000000    12.74295196     0.00000000
     0.00000000     0.00000000    29.99540834
  Ir  O
  48  97
Selective
Direct
     0.29263603     0.12242743     0.04064279   F F F
     0.29263603     0.37242743     0.14685032   F F F
     0.29263603     0.12242743     0.25305784   T T T
     0.29263603     0.37242743     0.35926536   T T T
     0.12596937     0.37242743     0.04064279   F F F
     0.12596937     0.12242743     0.14685032   F F F
     0.12596937     0.37242743     0.25305784   T T T
     0.12596937     0.12242743     0.35926536   T T T
     0.62596937     0.12242743     0.04064279   F F F
     0.62596937     0.37242743     0.14685032   F F F
     0.62596937     0.12242743     0.25305784   T T T
     0.62596937     0.37242743     0.35926536   T T T
     0.45930270     0.37242743     0.04064279   F F F
     0.45930270     0.12242743     0.14685032   F F F
     0.45930270     0.37242743     0.25305784   T T T
     0.45930270     0.12242743     0.35926536   T T T
     0.95930270     0.12242743     0.04064279   F F F
     0.95930270     0.37242743     0.14685032   F F F
     0.95930270     0.12242743     0.25305784   T T T
     0.95930270     0.37242743     0.35926536   T T T
     0.79263603     0.37242743     0.04064279   F F F
     0.79263603     0.12242743     0.14685032   F F F
     0.79263603     0.37242743     0.25305784   T T T
     0.79263603     0.12242743     0.35926536   T T T
     0.29263603     0.62242743     0.04064279   F F F
     0.29263603     0.87242743     0.14685032   F F F
     0.29263603     0.62242743     0.25305784   T T T
     0.29263603     0.87242743     0.35926536   T T T
     0.12596937     0.87242743     0.04064279   F F F
     0.12596937     0.62242743     0.14685032   F F F
     0.12596937     0.87242743     0.25305784   T T T
     0.12596937     0.62242743     0.35926536   T T T
     0.62596937     0.62242743     0.04064279   F F F
     0.62596937     0.87242743     0.14685032   F F F
     0.62596937     0.62242743     0.25305784   T T T
     0.62596937     0.87242743     0.35926536   T T T
     0.45930270     0.87242743     0.04064279   F F F
     0.45930270     0.62242743     0.14685032   F F F
     0.45930270     0.87242743     0.25305784   T T T
     0.45930270     0.62242743     0.35926536   T T T
     0.95930270     0.62242743     0.04064279   F F F
     0.95930270     0.87242743     0.14685032   F F F
     0.95930270     0.62242743     0.25305784   T T T
     0.95930270     0.87242743     0.35926536   T T T
     0.79263603     0.87242743     0.04064279   F F F
     0.79263603     0.62242743     0.14685032   F F F
     0.79263603     0.87242743     0.25305784   T T T
     0.79263603     0.62242743     0.35926536   T T T
     0.12596937     0.21809578     0.04064279   F F F
     0.12596937     0.46809578     0.14685032   F F F
     0.12596937     0.21809578     0.25305784   T T T
     0.12596937     0.46809578     0.35926536   T T T
     0.12596937     0.02675908     0.04064279   F F F
     0.12596937     0.27675908     0.14685032   F F F
     0.12596937     0.02675908     0.25305784   T T T
     0.12596937     0.27675908     0.35926536   T T T
     0.29263603     0.37242743     0.08128559   F F F
     0.29263603     0.12242743     0.18749311   F F F
     0.29263603     0.37242743     0.29370063   T T T
     0.29263603     0.12242743     0.39990815   T T T
     0.29263603     0.37242743     0.00000000   F F F
     0.29263603     0.12242743     0.10620752   F F F
     0.29263603     0.37242743     0.21241504   T T T
     0.29263603     0.12242743     0.31862257   T T T
     0.45930270     0.21809578     0.04064279   F F F
     0.45930270     0.46809578     0.14685032   F F F
     0.45930270     0.21809578     0.25305784   T T T
     0.45930270     0.46809578     0.35926536   T T T
     0.45930270     0.02675908     0.04064279   F F F
     0.45930270     0.27675908     0.14685032   F F F
     0.45930270     0.02675908     0.25305784   T T T
     0.45930270     0.27675908     0.35926536   T T T
     0.62596937     0.37242743     0.08128559   F F F
     0.62596937     0.12242743     0.18749311   F F F
     0.62596937     0.37242743     0.29370063   T T T
     0.62596937     0.12242743     0.39990815   T T T
     0.62596937     0.37242743     0.00000000   F F F
     0.62596937     0.12242743     0.10620752   F F F
     0.62596937     0.37242743     0.21241504   T T T
     0.62596937     0.12242743     0.31862257   T T T
     0.79263603     0.21809578     0.04064279   F F F
     0.79263603     0.46809578     0.14685032   F F F
     0.79263603     0.21809578     0.25305784   T T T
     0.79263603     0.46809578     0.35926536   T T T
     0.79263603     0.02675908     0.04064279   F F F
     0.79263603     0.27675908     0.14685032   F F F
     0.79263603     0.02675908     0.25305784   T T T
     0.79263603     0.27675908     0.35926536   T T T
     0.95930270     0.37242743     0.08128559   F F F
     0.95930270     0.12242743     0.18749311   F F F
     0.95930270     0.37242743     0.29370063   T T T
     0.95930270     0.12242743     0.39990815   T T T
     0.95930270     0.37242743     0.00000000   F F F
     0.95930270     0.12242743     0.10620752   F F F
     0.95930270     0.37242743     0.21241504   T T T
     0.95930270     0.12242743     0.31862257   T T T
     0.12596937     0.71809578     0.04064279   F F F
     0.12596937     0.96809578     0.14685032   F F F
     0.12596937     0.71809578     0.25305784   T T T
     0.12596937     0.96809578     0.35926536   T T T
     0.12596937     0.52675908     0.04064279   F F F
     0.12596937     0.77675908     0.14685032   F F F
     0.12596937     0.52675908     0.25305784   T T T
     0.12596937     0.77675908     0.35926536   T T T
     0.29263603     0.87242743     0.08128559   F F F
     0.29263603     0.62242743     0.18749311   F F F
     0.29263603     0.87242743     0.29370063   T T T
     0.29263603     0.62242743     0.39990815   T T T
     0.29263603     0.87242743     0.00000000   F F F
     0.29263603     0.62242743     0.10620752   F F F
     0.29263603     0.87242743     0.21241504   T T T
     0.29263603     0.62242743     0.31862257   T T T
     0.45930270     0.71809578     0.04064279   F F F
     0.45930270     0.96809578     0.14685032   F F F
     0.45930270     0.71809578     0.25305784   T T T
     0.45930270     0.96809578     0.35926536   T T T
     0.45930270     0.52675908     0.04064279   F F F
     0.45930270     0.77675908     0.14685032   F F F
     0.45930270     0.52675908     0.25305784   T T T
     0.45930270     0.77675908     0.35926536   T T T
     0.62596937     0.87242743     0.08128559   F F F
     0.62596937     0.62242743     0.18749311   F F F
     0.62596937     0.87242743     0.29370063   T T T
     0.62596937     0.62242743     0.39990815   T T T
     0.62596937     0.87242743     0.00000000   F F F
     0.62596937     0.62242743     0.10620752   F F F
     0.62596937     0.87242743     0.21241504   T T T
     0.62596937     0.62242743     0.31862257   T T T
     0.79263603     0.71809578     0.04064279   F F F
     0.79263603     0.96809578     0.14685032   F F F
     0.79263603     0.71809578     0.25305784   T T T
     0.79263603     0.96809578     0.35926536   T T T
     0.79263603     0.52675908     0.04064279   F F F
     0.79263603     0.77675908     0.14685032   F F F
     0.79263603     0.52675908     0.25305784   T T T
     0.79263603     0.77675908     0.35926536   T T T
     0.95930270     0.87242743     0.08128559   F F F
     0.95930270     0.62242743     0.18749311   F F F
     0.95930270     0.87242743     0.29370063   T T T
     0.95930270     0.62242743     0.39990815   T T T
     0.95930270     0.87242743     0.00000000   F F F
     0.95930270     0.62242743     0.10620752   F F F
     0.95930270     0.87242743     0.21241504   T T T
     0.95930270     0.62242743     0.31862257   T T T
     0.60385366     0.37364328     0.42346811   T T T
