Ru  O  H                                
   1.00000000000000     
     9.3340239999999994    0.0000000000000000    0.0000000000000000
     0.0000000000000000   12.6784260000000000    0.0000000000000000
     0.0000000000000000    0.0000000000000000   29.9755059999999993
   Ru   O    H 
    48   100     3
Selective dynamics
Direct
  0.2926360000000017  0.3724270000000018  0.0411450000000002   F   F   F
  0.2926360000000017  0.1224270000000018  0.1468849999999975   F   F   F
  0.2921091490626718  0.3722050926332006  0.2537295362571405   T   T   T
  0.2917927531690617  0.1221658211235464  0.3547116895964821   T   T   T
  0.1259689999999978  0.1224270000000018  0.0411450000000002   F   F   F
  0.1259689999999978  0.3724270000000018  0.1468849999999975   F   F   F
  0.1251497887404112  0.1223091768482640  0.2517110498624918   T   T   T
  0.1245090862478413  0.3729015607362105  0.3628894009343146   T   T   T
  0.6259689999999978  0.3724270000000018  0.0411450000000002   F   F   F
  0.6259689999999978  0.1224270000000018  0.1468849999999975   F   F   F
  0.6252072356107354  0.3725712227517854  0.2537620887341099   T   T   T
  0.6244515459192376  0.1221539744288145  0.3672105648548467   T   T   T
  0.4593029999999985  0.1224270000000018  0.0411450000000002   F   F   F
  0.4593029999999985  0.3724270000000018  0.1468849999999975   F   F   F
  0.4625128487861112  0.1223219860139552  0.2536817339550758   T   T   T
  0.4575055951454055  0.3733143251776224  0.3620946455413205   T   T   T
  0.9593029999999985  0.3724270000000018  0.0411450000000002   F   F   F
  0.9593029999999985  0.1224270000000018  0.1468849999999975   F   F   F
  0.9582732182956312  0.3721979885236502  0.2537392574064857   T   T   T
  0.9571847258598190  0.1221734523931151  0.3547529347440030   T   T   T
  0.7926360000000017  0.1224270000000018  0.0411450000000002   F   F   F
  0.7926360000000017  0.3724270000000018  0.1468849999999975   F   F   F
  0.7877886205533555  0.1223143949755526  0.2537028254362738   T   T   T
  0.7914949236787389  0.3733415074198564  0.3621030375290710   T   T   T
  0.2926360000000017  0.8724270000000018  0.0411450000000002   F   F   F
  0.2926360000000017  0.6224270000000018  0.1468849999999975   F   F   F
  0.2921105175862425  0.8724303487007066  0.2537209921294896   T   T   T
  0.2907029257385510  0.6221341701735822  0.3591593636812572   T   T   T
  0.1259689999999978  0.6224270000000018  0.0411450000000002   F   F   F
  0.1259689999999978  0.8724270000000018  0.1468849999999975   F   F   F
  0.1250783923653154  0.6223072820269852  0.2528745581865890   T   T   T
  0.1244943299546929  0.8714103976877062  0.3628730993182666   T   T   T
  0.6259689999999978  0.8724270000000018  0.0411450000000002   F   F   F
  0.6259689999999978  0.6224270000000018  0.1468849999999975   F   F   F
  0.6251768639342621  0.8720781381627012  0.2537557725218091   T   T   T
  0.6242242712095833  0.6221723630898434  0.3591082137027987   T   T   T
  0.4593029999999985  0.6224270000000018  0.0411450000000002   F   F   F
  0.4593029999999985  0.8724270000000018  0.1468849999999975   F   F   F
  0.4583736214530815  0.6223135500685775  0.2528428935876170   T   T   T
  0.4574300455527714  0.8709861483405874  0.3621038301672703   T   T   T
  0.9593029999999985  0.8724270000000018  0.0411450000000002   F   F   F
  0.9593029999999985  0.6224270000000018  0.1468849999999975   F   F   F
  0.9582725446231602  0.8724401276140556  0.2537318442706134   T   T   T
  0.9576872667484045  0.6221867259806239  0.3591180949411974   T   T   T
  0.7926360000000017  0.6224270000000018  0.0411450000000002   F   F   F
  0.7926360000000017  0.8724270000000018  0.1468849999999975   F   F   F
  0.7917618936856493  0.6223372678552400  0.2528391714679494   T   T   T
  0.7914250506102335  0.8710027511416589  0.3620767605483135   T   T   T
  0.1259689999999978  0.4697060000000022  0.0411450000000002   F   F   F
  0.1259689999999978  0.2197060000000022  0.1468849999999975   F   F   F
  0.1251373899451053  0.4691722358068137  0.2532176964213528   T   T   T
  0.1244962462363108  0.2164519023279741  0.3600860268589359   T   T   T
  0.1259689999999978  0.2751489999999990  0.0411450000000002   F   F   F
  0.1259689999999978  0.0251489999999990  0.1468849999999975   F   F   F
  0.1251704857497505  0.2755413133163241  0.2529460620664926   T   T   T
  0.1244773260963774  0.0278413467084267  0.3600620407008230   T   T   T
  0.2926360000000017  0.1224270000000018  0.0822900000000004   F   F   F
  0.2926360000000017  0.3724270000000018  0.1880299999999977   F   F   F
  0.2913068920354586  0.1222361051901812  0.2924961224847814   T   T   T
  0.2907345728499881  0.3713592496641802  0.3994220412488318   T   T   T
  0.2926360000000017  0.1224270000000018  0.0000000000000000   F   F   F
  0.2926360000000017  0.3724270000000018  0.1057399999999973   F   F   F
  0.2938149667201851  0.1222991346581730  0.2115845372301496   T   T   T
  0.2913374353812248  0.3716024130015991  0.3186458249601063   T   T   T
  0.4593029999999985  0.4697060000000022  0.0411450000000002   F   F   F
  0.4593029999999985  0.2197060000000022  0.1468849999999975   F   F   F
  0.4581414676507738  0.4694883778509325  0.2533109805469675   T   T   T
  0.4563309650122969  0.2178362863514243  0.3602031992287988   T   T   T
  0.4593029999999985  0.2751489999999990  0.0411450000000002   F   F   F
  0.4593029999999985  0.0251489999999990  0.1468849999999975   F   F   F
  0.4591703338039899  0.2752723042593258  0.2535825394244021   T   T   T
  0.4562892297349619  0.0264675649570023  0.3601923732173970   T   T   T
  0.6259689999999978  0.1224270000000018  0.0822900000000004   F   F   F
  0.6259689999999978  0.3724270000000018  0.1880299999999977   F   F   F
  0.6250264064288757  0.1222832991221351  0.2977043596110364   T   T   T
  0.6244721168516217  0.3717021360204713  0.3982491500317218   T   T   T
  0.6259689999999978  0.1224270000000018  0.0000000000000000   F   F   F
  0.6259689999999978  0.3724270000000018  0.1057399999999973   F   F   F
  0.6253088827661752  0.1223233946548080  0.2117834411356160   T   T   T
  0.6246250113611156  0.3732459076759043  0.3186366359905171   T   T   T
  0.7926360000000017  0.4697060000000022  0.0411450000000002   F   F   F
  0.7926360000000017  0.2197060000000022  0.1468849999999975   F   F   F
  0.7922060248290191  0.4694852044485059  0.2533291421822885   T   T   T
  0.7926363064415750  0.2178225496198136  0.3603262839031917   T   T   T
  0.7926360000000017  0.2751489999999990  0.0411450000000002   F   F   F
  0.7926360000000017  0.0251489999999990  0.1468849999999975   F   F   F
  0.7912336270829624  0.2752747137742567  0.2535836095250728   T   T   T
  0.7926242567794963  0.0264942328876197  0.3602532047208463   T   T   T
  0.9593029999999985  0.1224270000000018  0.0822900000000004   F   F   F
  0.9593029999999985  0.3724270000000018  0.1880299999999977   F   F   F
  0.9588400267581860  0.1222750925891491  0.2925367961088907   T   T   T
  0.9583332998020495  0.3714736230906783  0.3994231184121455   T   T   T
  0.9593029999999985  0.1224270000000018  0.0000000000000000   F   F   F
  0.9593029999999985  0.3724270000000018  0.1057399999999973   F   F   F
  0.9567645699906152  0.1223294984159011  0.2115829713098540   T   T   T
  0.9578889184057721  0.3715711027211370  0.3186549445412676   T   T   T
  0.1259689999999978  0.9697060000000022  0.0411450000000002   F   F   F
  0.1259689999999978  0.7197060000000022  0.1468849999999975   F   F   F
  0.1251728318607812  0.9690828382996802  0.2529825275483209   T   T   T
  0.1245597084033860  0.7183786333730798  0.3592498916230411   T   T   T
  0.1259689999999978  0.7751489999999990  0.0411450000000002   F   F   F
  0.1259689999999978  0.5251489999999990  0.1468849999999975   F   F   F
  0.1251388261757175  0.7754517268470476  0.2531638496943077   T   T   T
  0.1244320080529173  0.5259370679443258  0.3592631339372554   T   T   T
  0.2926360000000017  0.6224270000000018  0.0822900000000004   F   F   F
  0.2926360000000017  0.8724270000000018  0.1880299999999977   F   F   F
  0.2913705690876449  0.6222628405781927  0.2944721155669857   T   T   T
  0.2906729238012575  0.8728661103390195  0.3994402438117833   T   T   T
  0.2926360000000017  0.6224270000000018  0.0000000000000000   F   F   F
  0.2926360000000017  0.8724270000000018  0.1057399999999973   F   F   F
  0.2919165105280139  0.6222784741606651  0.2115504710629652   T   T   T
  0.2913055222539745  0.8727101236466301  0.3186312525645213   T   T   T
  0.4593029999999985  0.9697060000000022  0.0411450000000002   F   F   F
  0.4593029999999985  0.7197060000000022  0.1468849999999975   F   F   F
  0.4591622935761435  0.9693858762701691  0.2536027613004185   T   T   T
  0.4573120377829820  0.7179859009660287  0.3593676254267696   T   T   T
  0.4593029999999985  0.7751489999999990  0.0411450000000002   F   F   F
  0.4593029999999985  0.5251489999999990  0.1468849999999975   F   F   F
  0.4581275312260487  0.7751459783237291  0.2532657875799406   T   T   T
  0.4574191429851294  0.5262999652993713  0.3593344730920038   T   T   T
  0.6259689999999978  0.6224270000000018  0.0822900000000004   F   F   F
  0.6259689999999978  0.8724270000000018  0.1880299999999977   F   F   F
  0.6248411434238609  0.6222866389890077  0.2944862928919021   T   T   T
  0.6244130934516374  0.8725788422014181  0.3982487896510189   T   T   T
  0.6259689999999978  0.6224270000000018  0.0000000000000000   F   F   F
  0.6259689999999978  0.8724270000000018  0.1057399999999973   F   F   F
  0.6252836604647806  0.6223182572497509  0.2115237021358159   T   T   T
  0.6245338083815988  0.8710913221134953  0.3186323729124593   T   T   T
  0.7926360000000017  0.9697060000000022  0.0411450000000002   F   F   F
  0.7926360000000017  0.7197060000000022  0.1468849999999975   F   F   F
  0.7912119505152015  0.9693618914833184  0.2536278304975267   T   T   T
  0.7916812891692999  0.7180498624177524  0.3592797148062098   T   T   T
  0.7926360000000017  0.7751489999999990  0.0411450000000002   F   F   F
  0.7926360000000017  0.5251489999999990  0.1468849999999975   F   F   F
  0.7921962596169452  0.7751869865791737  0.2532640036440513   T   T   T
  0.7917315142350693  0.5263089518446016  0.3593019138350058   T   T   T
  0.9593029999999985  0.6224270000000018  0.0822900000000004   F   F   F
  0.9593029999999985  0.8724270000000018  0.1880299999999977   F   F   F
  0.9583525484636782  0.6222758144868266  0.2944468914419369   T   T   T
  0.9583099449506626  0.8728311157927204  0.3993818237995568   T   T   T
  0.9593029999999985  0.6224270000000018  0.0000000000000000   F   F   F
  0.9593029999999985  0.8724270000000018  0.1057399999999973   F   F   F
  0.9586622997352706  0.6223175893853421  0.2115443392231280   T   T   T
  0.9578567518202358  0.8727536602813624  0.3186445862461237   T   T   T
  0.2954313671080862  0.6218509010250511  0.4233556650221949   T   T   T
  0.6303974373097136  0.6223545808887350  0.4233204255887556   T   T   T
  0.9641852325009638  0.6223609899036137  0.4233645309652424   T   T   T
  0.6239705439986365  0.1220474057563569  0.4240918456689369   T   T   T
  0.8673287716373757  0.6227511308368090  0.4362041368895568   T   T   T
  0.5334970445330136  0.6225573003529811  0.4361563840772211   T   T   T
  0.1979650235309032  0.6216426527783347  0.4358356469585525   T   T   T
 
  0.00000000E+00  0.00000000E+00  0.00000000E+00
  0.00000000E+00  0.00000000E+00  0.00000000E+00
  0.00000000E+00  0.00000000E+00  0.00000000E+00
  0.00000000E+00  0.00000000E+00  0.00000000E+00
  0.00000000E+00  0.00000000E+00  0.00000000E+00
  0.00000000E+00  0.00000000E+00  0.00000000E+00
  0.00000000E+00  0.00000000E+00  0.00000000E+00
  0.00000000E+00  0.00000000E+00  0.00000000E+00
  0.00000000E+00  0.00000000E+00  0.00000000E+00
  0.00000000E+00  0.00000000E+00  0.00000000E+00
  0.00000000E+00  0.00000000E+00  0.00000000E+00
  0.00000000E+00  0.00000000E+00  0.00000000E+00
  0.00000000E+00  0.00000000E+00  0.00000000E+00
  0.00000000E+00  0.00000000E+00  0.00000000E+00
  0.00000000E+00  0.00000000E+00  0.00000000E+00
  0.00000000E+00  0.00000000E+00  0.00000000E+00
  0.00000000E+00  0.00000000E+00  0.00000000E+00
  0.00000000E+00  0.00000000E+00  0.00000000E+00
  0.00000000E+00  0.00000000E+00  0.00000000E+00
  0.00000000E+00  0.00000000E+00  0.00000000E+00
  0.00000000E+00  0.00000000E+00  0.00000000E+00
  0.00000000E+00  0.00000000E+00  0.00000000E+00
  0.00000000E+00  0.00000000E+00  0.00000000E+00
  0.00000000E+00  0.00000000E+00  0.00000000E+00
  0.00000000E+00  0.00000000E+00  0.00000000E+00
  0.00000000E+00  0.00000000E+00  0.00000000E+00
  0.00000000E+00  0.00000000E+00  0.00000000E+00
  0.00000000E+00  0.00000000E+00  0.00000000E+00
  0.00000000E+00  0.00000000E+00  0.00000000E+00
  0.00000000E+00  0.00000000E+00  0.00000000E+00
  0.00000000E+00  0.00000000E+00  0.00000000E+00
  0.00000000E+00  0.00000000E+00  0.00000000E+00
  0.00000000E+00  0.00000000E+00  0.00000000E+00
  0.00000000E+00  0.00000000E+00  0.00000000E+00
  0.00000000E+00  0.00000000E+00  0.00000000E+00
  0.00000000E+00  0.00000000E+00  0.00000000E+00
  0.00000000E+00  0.00000000E+00  0.00000000E+00
  0.00000000E+00  0.00000000E+00  0.00000000E+00
  0.00000000E+00  0.00000000E+00  0.00000000E+00
  0.00000000E+00  0.00000000E+00  0.00000000E+00
  0.00000000E+00  0.00000000E+00  0.00000000E+00
  0.00000000E+00  0.00000000E+00  0.00000000E+00
  0.00000000E+00  0.00000000E+00  0.00000000E+00
  0.00000000E+00  0.00000000E+00  0.00000000E+00
  0.00000000E+00  0.00000000E+00  0.00000000E+00
  0.00000000E+00  0.00000000E+00  0.00000000E+00
  0.00000000E+00  0.00000000E+00  0.00000000E+00
  0.00000000E+00  0.00000000E+00  0.00000000E+00
  0.00000000E+00  0.00000000E+00  0.00000000E+00
  0.00000000E+00  0.00000000E+00  0.00000000E+00
  0.00000000E+00  0.00000000E+00  0.00000000E+00
  0.00000000E+00  0.00000000E+00  0.00000000E+00
  0.00000000E+00  0.00000000E+00  0.00000000E+00
  0.00000000E+00  0.00000000E+00  0.00000000E+00
  0.00000000E+00  0.00000000E+00  0.00000000E+00
  0.00000000E+00  0.00000000E+00  0.00000000E+00
  0.00000000E+00  0.00000000E+00  0.00000000E+00
  0.00000000E+00  0.00000000E+00  0.00000000E+00
  0.00000000E+00  0.00000000E+00  0.00000000E+00
  0.00000000E+00  0.00000000E+00  0.00000000E+00
  0.00000000E+00  0.00000000E+00  0.00000000E+00
  0.00000000E+00  0.00000000E+00  0.00000000E+00
  0.00000000E+00  0.00000000E+00  0.00000000E+00
  0.00000000E+00  0.00000000E+00  0.00000000E+00
  0.00000000E+00  0.00000000E+00  0.00000000E+00
  0.00000000E+00  0.00000000E+00  0.00000000E+00
  0.00000000E+00  0.00000000E+00  0.00000000E+00
  0.00000000E+00  0.00000000E+00  0.00000000E+00
  0.00000000E+00  0.00000000E+00  0.00000000E+00
  0.00000000E+00  0.00000000E+00  0.00000000E+00
  0.00000000E+00  0.00000000E+00  0.00000000E+00
  0.00000000E+00  0.00000000E+00  0.00000000E+00
  0.00000000E+00  0.00000000E+00  0.00000000E+00
  0.00000000E+00  0.00000000E+00  0.00000000E+00
  0.00000000E+00  0.00000000E+00  0.00000000E+00
  0.00000000E+00  0.00000000E+00  0.00000000E+00
  0.00000000E+00  0.00000000E+00  0.00000000E+00
  0.00000000E+00  0.00000000E+00  0.00000000E+00
  0.00000000E+00  0.00000000E+00  0.00000000E+00
  0.00000000E+00  0.00000000E+00  0.00000000E+00
  0.00000000E+00  0.00000000E+00  0.00000000E+00
  0.00000000E+00  0.00000000E+00  0.00000000E+00
  0.00000000E+00  0.00000000E+00  0.00000000E+00
  0.00000000E+00  0.00000000E+00  0.00000000E+00
  0.00000000E+00  0.00000000E+00  0.00000000E+00
  0.00000000E+00  0.00000000E+00  0.00000000E+00
  0.00000000E+00  0.00000000E+00  0.00000000E+00
  0.00000000E+00  0.00000000E+00  0.00000000E+00
  0.00000000E+00  0.00000000E+00  0.00000000E+00
  0.00000000E+00  0.00000000E+00  0.00000000E+00
  0.00000000E+00  0.00000000E+00  0.00000000E+00
  0.00000000E+00  0.00000000E+00  0.00000000E+00
  0.00000000E+00  0.00000000E+00  0.00000000E+00
  0.00000000E+00  0.00000000E+00  0.00000000E+00
  0.00000000E+00  0.00000000E+00  0.00000000E+00
  0.00000000E+00  0.00000000E+00  0.00000000E+00
  0.00000000E+00  0.00000000E+00  0.00000000E+00
  0.00000000E+00  0.00000000E+00  0.00000000E+00
  0.00000000E+00  0.00000000E+00  0.00000000E+00
  0.00000000E+00  0.00000000E+00  0.00000000E+00
  0.00000000E+00  0.00000000E+00  0.00000000E+00
  0.00000000E+00  0.00000000E+00  0.00000000E+00
  0.00000000E+00  0.00000000E+00  0.00000000E+00
  0.00000000E+00  0.00000000E+00  0.00000000E+00
  0.00000000E+00  0.00000000E+00  0.00000000E+00
  0.00000000E+00  0.00000000E+00  0.00000000E+00
  0.00000000E+00  0.00000000E+00  0.00000000E+00
  0.00000000E+00  0.00000000E+00  0.00000000E+00
  0.00000000E+00  0.00000000E+00  0.00000000E+00
  0.00000000E+00  0.00000000E+00  0.00000000E+00
  0.00000000E+00  0.00000000E+00  0.00000000E+00
  0.00000000E+00  0.00000000E+00  0.00000000E+00
  0.00000000E+00  0.00000000E+00  0.00000000E+00
  0.00000000E+00  0.00000000E+00  0.00000000E+00
  0.00000000E+00  0.00000000E+00  0.00000000E+00
  0.00000000E+00  0.00000000E+00  0.00000000E+00
  0.00000000E+00  0.00000000E+00  0.00000000E+00
  0.00000000E+00  0.00000000E+00  0.00000000E+00
  0.00000000E+00  0.00000000E+00  0.00000000E+00
  0.00000000E+00  0.00000000E+00  0.00000000E+00
  0.00000000E+00  0.00000000E+00  0.00000000E+00
  0.00000000E+00  0.00000000E+00  0.00000000E+00
  0.00000000E+00  0.00000000E+00  0.00000000E+00
  0.00000000E+00  0.00000000E+00  0.00000000E+00
  0.00000000E+00  0.00000000E+00  0.00000000E+00
  0.00000000E+00  0.00000000E+00  0.00000000E+00
  0.00000000E+00  0.00000000E+00  0.00000000E+00
  0.00000000E+00  0.00000000E+00  0.00000000E+00
  0.00000000E+00  0.00000000E+00  0.00000000E+00
  0.00000000E+00  0.00000000E+00  0.00000000E+00
  0.00000000E+00  0.00000000E+00  0.00000000E+00
  0.00000000E+00  0.00000000E+00  0.00000000E+00
  0.00000000E+00  0.00000000E+00  0.00000000E+00
  0.00000000E+00  0.00000000E+00  0.00000000E+00
  0.00000000E+00  0.00000000E+00  0.00000000E+00
  0.00000000E+00  0.00000000E+00  0.00000000E+00
  0.00000000E+00  0.00000000E+00  0.00000000E+00
  0.00000000E+00  0.00000000E+00  0.00000000E+00
  0.00000000E+00  0.00000000E+00  0.00000000E+00
  0.00000000E+00  0.00000000E+00  0.00000000E+00
  0.00000000E+00  0.00000000E+00  0.00000000E+00
  0.00000000E+00  0.00000000E+00  0.00000000E+00
  0.00000000E+00  0.00000000E+00  0.00000000E+00
  0.00000000E+00  0.00000000E+00  0.00000000E+00
  0.00000000E+00  0.00000000E+00  0.00000000E+00
  0.00000000E+00  0.00000000E+00  0.00000000E+00
  0.00000000E+00  0.00000000E+00  0.00000000E+00
  0.00000000E+00  0.00000000E+00  0.00000000E+00
  0.00000000E+00  0.00000000E+00  0.00000000E+00
  0.00000000E+00  0.00000000E+00  0.00000000E+00
  0.00000000E+00  0.00000000E+00  0.00000000E+00
