Ir  O 
 1.0000000000000000
     9.5301187200000008    0.0000000000000000    0.0000000000000000
     0.0000000000000000   12.7429519599999992    0.0000000000000000
     0.0000000000000000    0.0000000000000000   29.9954083400000009
 Ir  O  
  48  96
Selective dynamics
Cartesian
  2.7888561076494534  1.5600868590762871  1.2190970821268596   F   F   F
  2.7888561076494534  4.7458248490762864  4.4048353132596265   F   F   F
  2.7888561076494534  1.5600868590762871  7.6167024034919919   T   T   T
  2.7888561076494534  4.7458248490762864 10.7518902138253978   T   T   T
  1.2005030511836066  4.7458248490762864  1.2190970821268596   F   F   F
  1.2005030511836066  1.5600868590762871  4.4048353132596265   F   F   F
  1.2005030511836066  4.7458248490762864  7.6046969944821310   T   T   T
  1.2005030511836066  1.5600868590762871 10.8371242159810741   T   T   T
  5.9655624111836065  1.5600868590762871  1.2190970821268596   F   F   F
  5.9655624111836065  4.7458248490762864  4.4048353132596265   F   F   F
  5.9655624111836065  1.5600868590762871  7.6167024034919919   T   T   T
  5.9655624111836065  4.7458248490762864 10.7518902138253978   T   T   T
  4.3772092594165644  4.7458248490762864  1.2190970821268596   F   F   F
  4.3772092594165644  1.5600868590762871  4.4048353132596265   F   F   F
  4.3772092594165644  4.7458248490762864  7.6046969944821310   T   T   T
  4.3772092594165644  1.5600868590762871 10.8371242159810741   T   T   T
  9.1422686194165639  1.5600868590762871  1.2190970821268596   F   F   F
  9.1422686194165639  4.7458248490762864  4.4048353132596265   F   F   F
  9.1422686194165639  1.5600868590762871  7.6167024034919919   T   T   T
  9.1422686194165639  4.7458248490762864 10.7518902138253978   T   T   T
  7.5539154676494542  4.7458248490762864  1.2190970821268596   F   F   F
  7.5539154676494542  1.5600868590762871  4.4048353132596265   F   F   F
  7.5539154676494542  4.7458248490762864  7.6046969944821310   T   T   T
  7.5539154676494542  1.5600868590762871 10.8371242159810741   T   T   T
  2.7888561076494534  7.9315628390762862  1.2190970821268596   F   F   F
  2.7888561076494534 11.1173008290762869  4.4048353132596265   F   F   F
  2.7888561076494534  7.9315628390762862  7.6167024034919919   T   T   T
  2.7888561076494534 11.1173008290762869 10.7518902138253978   T   T   T
  1.2005030511836066 11.1173008290762869  1.2190970821268596   F   F   F
  1.2005030511836066  7.9315628390762862  4.4048353132596265   F   F   F
  1.2005030511836066 11.1173008290762869  7.6046969944821310   T   T   T
  1.2005030511836066  7.9315628390762862 10.8371242159810741   T   T   T
  5.9655624111836065  7.9315628390762862  1.2190970821268596   F   F   F
  5.9655624111836065 11.1173008290762869  4.4048353132596265   F   F   F
  5.9655624111836065  7.9315628390762862  7.6167024034919919   T   T   T
  5.9655624111836065 11.1173008290762869 10.7518902138253978   T   T   T
  4.3772092594165644 11.1173008290762869  1.2190970821268596   F   F   F
  4.3772092594165644  7.9315628390762862  4.4048353132596265   F   F   F
  4.3772092594165644 11.1173008290762869  7.6046969944821310   T   T   T
  4.3772092594165644  7.9315628390762862 10.8371242159810741   T   T   T
  9.1422686194165639  7.9315628390762862  1.2190970821268596   F   F   F
  9.1422686194165639 11.1173008290762869  4.4048353132596265   F   F   F
  9.1422686194165639  7.9315628390762862  7.6167024034919919   T   T   T
  9.1422686194165639 11.1173008290762869 10.7518902138253978   T   T   T
  7.5539154676494542 11.1173008290762869  1.2190970821268596   F   F   F
  7.5539154676494542  7.9315628390762862  4.4048353132596265   F   F   F
  7.5539154676494542 11.1173008290762869  7.6046969944821310   T   T   T
  7.5539154676494542  7.9315628390762862 10.8371242159810741   T   T   T
  1.2005030511836066  2.7791840472187124  1.2190970821268596   F   F   F
  1.2005030511836066  5.9649220372187113  4.4048353132596265   F   F   F
  1.2005030511836066  2.7805679889805068  7.6124030842243853   T   T   T
  1.2005030511836066  5.9643656683423814 10.8426934174351555   T   T   T
  1.2005030511836066  0.3409896709337700  1.2190970821268596   F   F   F
  1.2005030511836066  3.5267276609337697  4.4048353132596265   F   F   F
  1.2005030511836066  0.3396057291719790  7.6124030842243853   T   T   T
  1.2005030511836066  3.5272840298100960 10.8426934174351555   T   T   T
  2.7888561076494534  4.7458248490762864  2.4381944642078266   F   F   F
  2.7888561076494534  1.5600868590762871  5.6239323953864897   F   F   F
  2.7888561076494534  4.7458248490762864  8.8281079017063426   T   T   T
  2.7888561076494534  1.5600868590762871 12.0343552830176179   T   T   T
  2.7888561076494534  4.7458248490762864  0.0000000000000000   F   F   F
  2.7888561076494534  1.5600868590762871  3.1857379311786600   F   F   F
  2.7888561076494534  4.7458248490762864  6.3751018880831847   T   T   T
  2.7888561076494534  1.5600868590762871  9.5889153515884580   T   T   T
  4.3772092594165644  2.7791840472187124  1.2190970821268596   F   F   F
  4.3772092594165644  5.9649220372187113  4.4048353132596265   F   F   F
  4.3772092594165644  2.7805679889805068  7.6124030842243853   T   T   T
  4.3772092594165644  5.9643656683423814 10.8426934174351555   T   T   T
  4.3772092594165644  0.3409896709337700  1.2190970821268596   F   F   F
  4.3772092594165644  3.5267276609337697  4.4048353132596265   F   F   F
  4.3772092594165644  0.3396057291719790  7.6124030842243853   T   T   T
  4.3772092594165644  3.5272840298100960 10.8426934174351555   T   T   T
  5.9655624111836065  4.7458248490762864  2.4381944642078266   F   F   F
  5.9655624111836065  1.5600868590762871  5.6239323953864897   F   F   F
  5.9655624111836065  4.7458248490762864  8.8281079017063426   T   T   T
  5.9655624111836065  1.5600868590762871 12.0343552830176179   T   T   T
  5.9655624111836065  4.7458248490762864  0.0000000000000000   F   F   F
  5.9655624111836065  1.5600868590762871  3.1857379311786600   F   F   F
  5.9655624111836065  4.7458248490762864  6.3751018880831847   T   T   T
  5.9655624111836065  1.5600868590762871  9.5889153515884580   T   T   T
  7.5539154676494542  2.7791840472187124  1.2190970821268596   F   F   F
  7.5539154676494542  5.9649220372187113  4.4048353132596265   F   F   F
  7.5539154676494542  2.7805679889805068  7.6124030842243853   T   T   T
  7.5539154676494542  5.9643656683423814 10.8426934174351555   T   T   T
  7.5539154676494542  0.3409896709337700  1.2190970821268596   F   F   F
  7.5539154676494542  3.5267276609337697  4.4048353132596265   F   F   F
  7.5539154676494542  0.3396057291719790  7.6124030842243853   T   T   T
  7.5539154676494542  3.5272840298100960 10.8426934174351555   T   T   T
  9.1422686194165639  4.7458248490762864  2.4381944642078266   F   F   F
  9.1422686194165639  1.5600868590762871  5.6239323953864897   F   F   F
  9.1422686194165639  4.7458248490762864  8.8281079017063426   T   T   T
  9.1422686194165639  1.5600868590762871 12.0343552830176179   T   T   T
  9.1422686194165639  4.7458248490762864  0.0000000000000000   F   F   F
  9.1422686194165639  1.5600868590762871  3.1857379311786600   F   F   F
  9.1422686194165639  4.7458248490762864  6.3751018880831847   T   T   T
  9.1422686194165639  1.5600868590762871  9.5889153515884580   T   T   T
  1.2005030511836066  9.1506600272187129  1.2190970821268596   F   F   F
  1.2005030511836066 12.3363980172187127  4.4048353132596265   F   F   F
  1.2005030511836066  9.1520439689805002  7.6124030842243853   T   T   T
  1.2005030511836066 12.3358416483424076 10.8426934174351555   T   T   T
  1.2005030511836066  6.7124656509337699  1.2190970821268596   F   F   F
  1.2005030511836066  9.8982036409337706  4.4048353132596265   F   F   F
  1.2005030511836066  6.7110817091719879  7.6124030842243853   T   T   T
  1.2005030511836066  9.8987600098100739 10.8426934174351555   T   T   T
  2.7888561076494534 11.1173008290762869  2.4381944642078266   F   F   F
  2.7888561076494534  7.9315628390762862  5.6239323953864897   F   F   F
  2.7888561076494534 11.1173008290762869  8.8281079017063426   T   T   T
  2.7888561076494534  7.9315628390762862 12.0343552830176179   T   T   T
  2.7888561076494534 11.1173008290762869  0.0000000000000000   F   F   F
  2.7888561076494534  7.9315628390762862  3.1857379311786600   F   F   F
  2.7888561076494534 11.1173008290762869  6.3751018880831847   T   T   T
  2.7888561076494534  7.9315628390762862  9.5889153515884580   T   T   T
  4.3772092594165644  9.1506600272187129  1.2190970821268596   F   F   F
  4.3772092594165644 12.3363980172187127  4.4048353132596265   F   F   F
  4.3772092594165644  9.1520439689805002  7.6124030842243853   T   T   T
  4.3772092594165644 12.3358416483424076 10.8426934174351555   T   T   T
  4.3772092594165644  6.7124656509337699  1.2190970821268596   F   F   F
  4.3772092594165644  9.8982036409337706  4.4048353132596265   F   F   F
  4.3772092594165644  6.7110817091719879  7.6124030842243853   T   T   T
  4.3772092594165644  9.8987600098100739 10.8426934174351555   T   T   T
  5.9655624111836065 11.1173008290762869  2.4381944642078266   F   F   F
  5.9655624111836065  7.9315628390762862  5.6239323953864897   F   F   F
  5.9655624111836065 11.1173008290762869  8.8281079017063426   T   T   T
  5.9655624111836065  7.9315628390762862 12.0343552830176179   T   T   T
  5.9655624111836065 11.1173008290762869  0.0000000000000000   F   F   F
  5.9655624111836065  7.9315628390762862  3.1857379311786600   F   F   F
  5.9655624111836065 11.1173008290762869  6.3751018880831847   T   T   T
  5.9655624111836065  7.9315628390762862  9.5889153515884580   T   T   T
  7.5539154676494542  9.1506600272187129  1.2190970821268596   F   F   F
  7.5539154676494542 12.3363980172187127  4.4048353132596265   F   F   F
  7.5539154676494542  9.1520439689805002  7.6124030842243853   T   T   T
  7.5539154676494542 12.3358416483424076 10.8426934174351555   T   T   T
  7.5539154676494542  6.7124656509337699  1.2190970821268596   F   F   F
  7.5539154676494542  9.8982036409337706  4.4048353132596265   F   F   F
  7.5539154676494542  6.7110817091719879  7.6124030842243853   T   T   T
  7.5539154676494542  9.8987600098100739 10.8426934174351555   T   T   T
  9.1422686194165639 11.1173008290762869  2.4381944642078266   F   F   F
  9.1422686194165639  7.9315628390762862  5.6239323953864897   F   F   F
  9.1422686194165639 11.1173008290762869  8.8281079017063426   T   T   T
  9.1422686194165639  7.9315628390762862 12.0343552830176179   T   T   T
  9.1422686194165639 11.1173008290762869  0.0000000000000000   F   F   F
  9.1422686194165639  7.9315628390762862  3.1857379311786600   F   F   F
  9.1422686194165639 11.1173008290762869  6.3751018880831847   T   T   T
  9.1422686194165639  7.9315628390762862  9.5889153515884580   T   T   T
