Ru  O                                   
   1.00000000000000     
     9.3340239999999994    0.0000000000000000    0.0000000000000000
     0.0000000000000000   12.6784260000000000    0.0000000000000000
     0.0000000000000000    0.0000000000000000   29.9755059999999993
   Ru   O 
    48   100
Selective dynamics
Direct
  0.2926360000000017  0.3724270000000018  0.0411450000000002   F   F   F
  0.2926360000000017  0.1224270000000018  0.1468849999999975   F   F   F
  0.2918298257597249  0.3721089568573517  0.2533533114426677   T   T   T
  0.2907796312380397  0.1219616779971718  0.3552382131917851   T   T   T
  0.1259689999999978  0.1224270000000018  0.0411450000000002   F   F   F
  0.1259689999999978  0.3724270000000018  0.1468849999999975   F   F   F
  0.1247381157679783  0.1222563000630154  0.2519369644793250   T   T   T
  0.1238042959318110  0.3713729330180163  0.3617384308449875   T   T   T
  0.6259689999999978  0.3724270000000018  0.0411450000000002   F   F   F
  0.6259689999999978  0.1224270000000018  0.1468849999999975   F   F   F
  0.6249411524176812  0.3724447872900563  0.2533518469890776   T   T   T
  0.6234571710978490  0.1219205019041719  0.3675253780317249   T   T   T
  0.4593029999999985  0.1224270000000018  0.0411450000000002   F   F   F
  0.4593029999999985  0.3724270000000018  0.1468849999999975   F   F   F
  0.4620472965045080  0.1222464217853412  0.2538341392836654   T   T   T
  0.4570765043610077  0.3718300779631654  0.3610805097247961   T   T   T
  0.9593029999999985  0.3724270000000018  0.0411450000000002   F   F   F
  0.9593029999999985  0.1224270000000018  0.1468849999999975   F   F   F
  0.9578845517305121  0.3721139352430522  0.2533679671961379   T   T   T
  0.9562574430746151  0.1219507199207726  0.3552588905657196   T   T   T
  0.7926360000000017  0.1224270000000018  0.0411450000000002   F   F   F
  0.7926360000000017  0.3724270000000018  0.1468849999999975   F   F   F
  0.7873961532158462  0.1222514938584591  0.2538498577504125   T   T   T
  0.7907142320982362  0.3717700415998619  0.3612082639522166   T   T   T
  0.2926360000000017  0.8724270000000018  0.0411450000000002   F   F   F
  0.2926360000000017  0.6224270000000018  0.1468849999999975   F   F   F
  0.2918420463709149  0.8723900874011442  0.2533514139423143   T   T   T
  0.2900500166857526  0.6219462586455471  0.3635538683632460   T   T   T
  0.1259689999999978  0.6224270000000018  0.0411450000000002   F   F   F
  0.1259689999999978  0.8724270000000018  0.1468849999999975   F   F   F
  0.1248348655912978  0.6222452711643436  0.2536249961576999   T   T   T
  0.1238627345228842  0.8725472111070662  0.3617425290755552   T   T   T
  0.6259689999999978  0.8724270000000018  0.0411450000000002   F   F   F
  0.6259689999999978  0.6224270000000018  0.1468849999999975   F   F   F
  0.6249139025180528  0.8720493666463380  0.2533463485158075   T   T   T
  0.6235563693432752  0.6219372575176098  0.3635192296939086   T   T   T
  0.4593029999999985  0.6224270000000018  0.0411450000000002   F   F   F
  0.4593029999999985  0.8724270000000018  0.1468849999999975   F   F   F
  0.4583419065295156  0.6222291442789993  0.2535547627259825   T   T   T
  0.4570535005153327  0.8720817690212643  0.3610968241798344   T   T   T
  0.9593029999999985  0.8724270000000018  0.0411450000000002   F   F   F
  0.9593029999999985  0.6224270000000018  0.1468849999999975   F   F   F
  0.9579137165855001  0.8724021435388529  0.2533700963346793   T   T   T
  0.9571355966663426  0.6219417728801437  0.3637516101950600   T   T   T
  0.7926360000000017  0.6224270000000018  0.0411450000000002   F   F   F
  0.7926360000000017  0.8724270000000018  0.1468849999999975   F   F   F
  0.7916858331304830  0.6222866232508228  0.2536108918340890   T   T   T
  0.7906895808051488  0.8721066268021462  0.3611817788571021   T   T   T
  0.1259689999999978  0.4697060000000022  0.0411450000000002   F   F   F
  0.1259689999999978  0.2197060000000022  0.1468849999999975   F   F   F
  0.1248383957614741  0.4691419290864297  0.2532409039242599   T   T   T
  0.1235292708892304  0.2159592651417446  0.3603348682793115   T   T   T
  0.1259689999999978  0.2751489999999990  0.0411450000000002   F   F   F
  0.1259689999999978  0.0251489999999990  0.1468849999999975   F   F   F
  0.1248261504751257  0.2753974884699027  0.2526779686055531   T   T   T
  0.1235208291211554  0.0279222041948950  0.3602699307681081   T   T   T
  0.2926360000000017  0.1224270000000018  0.0822900000000004   F   F   F
  0.2926360000000017  0.3724270000000018  0.1880299999999977   F   F   F
  0.2909710089169636  0.1221993815516299  0.2928399686310912   T   T   T
  0.2902011715603505  0.3723334689671036  0.3982743645403234   T   T   T
  0.2926360000000017  0.1224270000000018  0.0000000000000000   F   F   F
  0.2926360000000017  0.3724270000000018  0.1057399999999973   F   F   F
  0.2933575956963562  0.1222425270651388  0.2116868957011796   T   T   T
  0.2909129778411076  0.3700543075840421  0.3180433223255756   T   T   T
  0.4593029999999985  0.4697060000000022  0.0411450000000002   F   F   F
  0.4593029999999985  0.2197060000000022  0.1468849999999975   F   F   F
  0.4578161174884737  0.4694975725763604  0.2532739029138869   T   T   T
  0.4554910935900157  0.2173033068020442  0.3609900062359567   T   T   T
  0.4593029999999985  0.2751489999999990  0.0411450000000002   F   F   F
  0.4593029999999985  0.0251489999999990  0.1468849999999975   F   F   F
  0.4588120293806721  0.2750589849550641  0.2532192149286977   T   T   T
  0.4554701774873176  0.0265683125093930  0.3608862681450405   T   T   T
  0.6259689999999978  0.1224270000000018  0.0822900000000004   F   F   F
  0.6259689999999978  0.3724270000000018  0.1880299999999977   F   F   F
  0.6245159779691821  0.1222203799691111  0.2978724725604772   T   T   T
  0.6237511322805729  0.3722895282827345  0.3975129511385420   T   T   T
  0.6259689999999978  0.1224270000000018  0.0000000000000000   F   F   F
  0.6259689999999978  0.3724270000000018  0.1057399999999973   F   F   F
  0.6249494267070983  0.1222677521836682  0.2118754540336354   T   T   T
  0.6241913703444587  0.3714893994364729  0.3180373751328560   T   T   T
  0.7926360000000017  0.4697060000000022  0.0411450000000002   F   F   F
  0.7926360000000017  0.2197060000000022  0.1468849999999975   F   F   F
  0.7919853947810055  0.4695790298749106  0.2533158290837303   T   T   T
  0.7916183963052376  0.2172812009178039  0.3611606545407005   T   T   T
  0.7926360000000017  0.2751489999999990  0.0411450000000002   F   F   F
  0.7926360000000017  0.0251489999999990  0.1468849999999975   F   F   F
  0.7909188619978363  0.2750226591197441  0.2532186973732081   T   T   T
  0.7916483559623808  0.0265677446604417  0.3610327970559276   T   T   T
  0.9593029999999985  0.1224270000000018  0.0822900000000004   F   F   F
  0.9593029999999985  0.3724270000000018  0.1880299999999977   F   F   F
  0.9581314718471845  0.1222138067581071  0.2928637027153764   T   T   T
  0.9574923949238220  0.3722791902096890  0.3984166559966921   T   T   T
  0.9593029999999985  0.1224270000000018  0.0000000000000000   F   F   F
  0.9593029999999985  0.3724270000000018  0.1057399999999973   F   F   F
  0.9565669009874340  0.1222574174255035  0.2116789962795458   T   T   T
  0.9570468942327665  0.3700674718622193  0.3180634345239476   T   T   T
  0.1259689999999978  0.9697060000000022  0.0411450000000002   F   F   F
  0.1259689999999978  0.7197060000000022  0.1468849999999975   F   F   F
  0.1248679918508529  0.9691181907799131  0.2527577389855793   T   T   T
  0.1241444498419636  0.7182166095261225  0.3572241716786431   T   T   T
  0.1259689999999978  0.7751489999999990  0.0411450000000002   F   F   F
  0.1259689999999978  0.5251489999999990  0.1468849999999975   F   F   F
  0.1248639642527708  0.7753588042338972  0.2531639195673573   T   T   T
  0.1238409507792612  0.5256906477785053  0.3571052398918745   T   T   T
  0.2926360000000017  0.6224270000000018  0.0822900000000004   F   F   F
  0.2926360000000017  0.8724270000000018  0.1880299999999977   F   F   F
  0.2916685852599025  0.6221741160550555  0.2954060838496748   T   T   T
  0.2902466234635758  0.8716374372991761  0.3983101897991637   T   T   T
  0.2926360000000017  0.6224270000000018  0.0000000000000000   F   F   F
  0.2926360000000017  0.8724270000000018  0.1057399999999973   F   F   F
  0.2918013281370560  0.6222191449705550  0.2119562041201499   T   T   T
  0.2908835661971655  0.8739357155915928  0.3180424418434003   T   T   T
  0.4593029999999985  0.9697060000000022  0.0411450000000002   F   F   F
  0.4593029999999985  0.7197060000000022  0.1468849999999975   F   F   F
  0.4588078737828049  0.9694530725623256  0.2532726734792421   T   T   T
  0.4567865339980706  0.7179556299526533  0.3571851858613559   T   T   T
  0.4593029999999985  0.7751489999999990  0.0411450000000002   F   F   F
  0.4593029999999985  0.5251489999999990  0.1468849999999975   F   F   F
  0.4577830970684127  0.7749773276585841  0.2532124731278185   T   T   T
  0.4570121879442808  0.5259319337277913  0.3570252353004919   T   T   T
  0.6259689999999978  0.6224270000000018  0.0822900000000004   F   F   F
  0.6259689999999978  0.8724270000000018  0.1880299999999977   F   F   F
  0.6249556786067469  0.6222258550973957  0.2955786461320911   T   T   T
  0.6237469034788717  0.8716017498477713  0.3975139652428101   T   T   T
  0.6259689999999978  0.6224270000000018  0.0000000000000000   F   F   F
  0.6259689999999978  0.8724270000000018  0.1057399999999973   F   F   F
  0.6251848226098182  0.6222635568480116  0.2119121489197497   T   T   T
  0.6241378649704010  0.8724002985461236  0.3180317511397221   T   T   T
  0.7926360000000017  0.9697060000000022  0.0411450000000002   F   F   F
  0.7926360000000017  0.7197060000000022  0.1468849999999975   F   F   F
  0.7908922558113697  0.9694785910693212  0.2533010414186843   T   T   T
  0.7908169838519150  0.7178612319732531  0.3574752907448246   T   T   T
  0.7926360000000017  0.7751489999999990  0.0411450000000002   F   F   F
  0.7926360000000017  0.5251489999999990  0.1468849999999975   F   F   F
  0.7920015894650034  0.7749735341879208  0.2532181193271155   T   T   T
  0.7908920120963941  0.5260606769792104  0.3574901101572684   T   T   T
  0.9593029999999985  0.6224270000000018  0.0822900000000004   F   F   F
  0.9593029999999985  0.8724270000000018  0.1880299999999977   F   F   F
  0.9584510777255483  0.6222528261538914  0.2955760264235592   T   T   T
  0.9574837477584162  0.8716186999707027  0.3983805017050375   T   T   T
  0.9593029999999985  0.6224270000000018  0.0000000000000000   F   F   F
  0.9593029999999985  0.8724270000000018  0.1057399999999973   F   F   F
  0.9584781912924475  0.6222446389110853  0.2119266575352713   T   T   T
  0.9571131729205187  0.8738477610050512  0.3180724134764124   T   T   T
  0.2918388521401211  0.6211401990503501  0.4203448692788533   T   T   T
  0.6227415962888433  0.6219561691510662  0.4203366913784388   T   T   T
  0.9591971897163951  0.6222079117271453  0.4205450475071545   T   T   T
  0.6229180322828226  0.1215404339188001  0.4244980006786885   T   T   T
 
  0.00000000E+00  0.00000000E+00  0.00000000E+00
  0.00000000E+00  0.00000000E+00  0.00000000E+00
  0.00000000E+00  0.00000000E+00  0.00000000E+00
  0.00000000E+00  0.00000000E+00  0.00000000E+00
  0.00000000E+00  0.00000000E+00  0.00000000E+00
  0.00000000E+00  0.00000000E+00  0.00000000E+00
  0.00000000E+00  0.00000000E+00  0.00000000E+00
  0.00000000E+00  0.00000000E+00  0.00000000E+00
  0.00000000E+00  0.00000000E+00  0.00000000E+00
  0.00000000E+00  0.00000000E+00  0.00000000E+00
  0.00000000E+00  0.00000000E+00  0.00000000E+00
  0.00000000E+00  0.00000000E+00  0.00000000E+00
  0.00000000E+00  0.00000000E+00  0.00000000E+00
  0.00000000E+00  0.00000000E+00  0.00000000E+00
  0.00000000E+00  0.00000000E+00  0.00000000E+00
  0.00000000E+00  0.00000000E+00  0.00000000E+00
  0.00000000E+00  0.00000000E+00  0.00000000E+00
  0.00000000E+00  0.00000000E+00  0.00000000E+00
  0.00000000E+00  0.00000000E+00  0.00000000E+00
  0.00000000E+00  0.00000000E+00  0.00000000E+00
  0.00000000E+00  0.00000000E+00  0.00000000E+00
  0.00000000E+00  0.00000000E+00  0.00000000E+00
  0.00000000E+00  0.00000000E+00  0.00000000E+00
  0.00000000E+00  0.00000000E+00  0.00000000E+00
  0.00000000E+00  0.00000000E+00  0.00000000E+00
  0.00000000E+00  0.00000000E+00  0.00000000E+00
  0.00000000E+00  0.00000000E+00  0.00000000E+00
  0.00000000E+00  0.00000000E+00  0.00000000E+00
  0.00000000E+00  0.00000000E+00  0.00000000E+00
  0.00000000E+00  0.00000000E+00  0.00000000E+00
  0.00000000E+00  0.00000000E+00  0.00000000E+00
  0.00000000E+00  0.00000000E+00  0.00000000E+00
  0.00000000E+00  0.00000000E+00  0.00000000E+00
  0.00000000E+00  0.00000000E+00  0.00000000E+00
  0.00000000E+00  0.00000000E+00  0.00000000E+00
  0.00000000E+00  0.00000000E+00  0.00000000E+00
  0.00000000E+00  0.00000000E+00  0.00000000E+00
  0.00000000E+00  0.00000000E+00  0.00000000E+00
  0.00000000E+00  0.00000000E+00  0.00000000E+00
  0.00000000E+00  0.00000000E+00  0.00000000E+00
  0.00000000E+00  0.00000000E+00  0.00000000E+00
  0.00000000E+00  0.00000000E+00  0.00000000E+00
  0.00000000E+00  0.00000000E+00  0.00000000E+00
  0.00000000E+00  0.00000000E+00  0.00000000E+00
  0.00000000E+00  0.00000000E+00  0.00000000E+00
  0.00000000E+00  0.00000000E+00  0.00000000E+00
  0.00000000E+00  0.00000000E+00  0.00000000E+00
  0.00000000E+00  0.00000000E+00  0.00000000E+00
  0.00000000E+00  0.00000000E+00  0.00000000E+00
  0.00000000E+00  0.00000000E+00  0.00000000E+00
  0.00000000E+00  0.00000000E+00  0.00000000E+00
  0.00000000E+00  0.00000000E+00  0.00000000E+00
  0.00000000E+00  0.00000000E+00  0.00000000E+00
  0.00000000E+00  0.00000000E+00  0.00000000E+00
  0.00000000E+00  0.00000000E+00  0.00000000E+00
  0.00000000E+00  0.00000000E+00  0.00000000E+00
  0.00000000E+00  0.00000000E+00  0.00000000E+00
  0.00000000E+00  0.00000000E+00  0.00000000E+00
  0.00000000E+00  0.00000000E+00  0.00000000E+00
  0.00000000E+00  0.00000000E+00  0.00000000E+00
  0.00000000E+00  0.00000000E+00  0.00000000E+00
  0.00000000E+00  0.00000000E+00  0.00000000E+00
  0.00000000E+00  0.00000000E+00  0.00000000E+00
  0.00000000E+00  0.00000000E+00  0.00000000E+00
  0.00000000E+00  0.00000000E+00  0.00000000E+00
  0.00000000E+00  0.00000000E+00  0.00000000E+00
  0.00000000E+00  0.00000000E+00  0.00000000E+00
  0.00000000E+00  0.00000000E+00  0.00000000E+00
  0.00000000E+00  0.00000000E+00  0.00000000E+00
  0.00000000E+00  0.00000000E+00  0.00000000E+00
  0.00000000E+00  0.00000000E+00  0.00000000E+00
  0.00000000E+00  0.00000000E+00  0.00000000E+00
  0.00000000E+00  0.00000000E+00  0.00000000E+00
  0.00000000E+00  0.00000000E+00  0.00000000E+00
  0.00000000E+00  0.00000000E+00  0.00000000E+00
  0.00000000E+00  0.00000000E+00  0.00000000E+00
  0.00000000E+00  0.00000000E+00  0.00000000E+00
  0.00000000E+00  0.00000000E+00  0.00000000E+00
  0.00000000E+00  0.00000000E+00  0.00000000E+00
  0.00000000E+00  0.00000000E+00  0.00000000E+00
  0.00000000E+00  0.00000000E+00  0.00000000E+00
  0.00000000E+00  0.00000000E+00  0.00000000E+00
  0.00000000E+00  0.00000000E+00  0.00000000E+00
  0.00000000E+00  0.00000000E+00  0.00000000E+00
  0.00000000E+00  0.00000000E+00  0.00000000E+00
  0.00000000E+00  0.00000000E+00  0.00000000E+00
  0.00000000E+00  0.00000000E+00  0.00000000E+00
  0.00000000E+00  0.00000000E+00  0.00000000E+00
  0.00000000E+00  0.00000000E+00  0.00000000E+00
  0.00000000E+00  0.00000000E+00  0.00000000E+00
  0.00000000E+00  0.00000000E+00  0.00000000E+00
  0.00000000E+00  0.00000000E+00  0.00000000E+00
  0.00000000E+00  0.00000000E+00  0.00000000E+00
  0.00000000E+00  0.00000000E+00  0.00000000E+00
  0.00000000E+00  0.00000000E+00  0.00000000E+00
  0.00000000E+00  0.00000000E+00  0.00000000E+00
  0.00000000E+00  0.00000000E+00  0.00000000E+00
  0.00000000E+00  0.00000000E+00  0.00000000E+00
  0.00000000E+00  0.00000000E+00  0.00000000E+00
  0.00000000E+00  0.00000000E+00  0.00000000E+00
  0.00000000E+00  0.00000000E+00  0.00000000E+00
  0.00000000E+00  0.00000000E+00  0.00000000E+00
  0.00000000E+00  0.00000000E+00  0.00000000E+00
  0.00000000E+00  0.00000000E+00  0.00000000E+00
  0.00000000E+00  0.00000000E+00  0.00000000E+00
  0.00000000E+00  0.00000000E+00  0.00000000E+00
  0.00000000E+00  0.00000000E+00  0.00000000E+00
  0.00000000E+00  0.00000000E+00  0.00000000E+00
  0.00000000E+00  0.00000000E+00  0.00000000E+00
  0.00000000E+00  0.00000000E+00  0.00000000E+00
  0.00000000E+00  0.00000000E+00  0.00000000E+00
  0.00000000E+00  0.00000000E+00  0.00000000E+00
  0.00000000E+00  0.00000000E+00  0.00000000E+00
  0.00000000E+00  0.00000000E+00  0.00000000E+00
  0.00000000E+00  0.00000000E+00  0.00000000E+00
  0.00000000E+00  0.00000000E+00  0.00000000E+00
  0.00000000E+00  0.00000000E+00  0.00000000E+00
  0.00000000E+00  0.00000000E+00  0.00000000E+00
  0.00000000E+00  0.00000000E+00  0.00000000E+00
  0.00000000E+00  0.00000000E+00  0.00000000E+00
  0.00000000E+00  0.00000000E+00  0.00000000E+00
  0.00000000E+00  0.00000000E+00  0.00000000E+00
  0.00000000E+00  0.00000000E+00  0.00000000E+00
  0.00000000E+00  0.00000000E+00  0.00000000E+00
  0.00000000E+00  0.00000000E+00  0.00000000E+00
  0.00000000E+00  0.00000000E+00  0.00000000E+00
  0.00000000E+00  0.00000000E+00  0.00000000E+00
  0.00000000E+00  0.00000000E+00  0.00000000E+00
  0.00000000E+00  0.00000000E+00  0.00000000E+00
  0.00000000E+00  0.00000000E+00  0.00000000E+00
  0.00000000E+00  0.00000000E+00  0.00000000E+00
  0.00000000E+00  0.00000000E+00  0.00000000E+00
  0.00000000E+00  0.00000000E+00  0.00000000E+00
  0.00000000E+00  0.00000000E+00  0.00000000E+00
  0.00000000E+00  0.00000000E+00  0.00000000E+00
  0.00000000E+00  0.00000000E+00  0.00000000E+00
  0.00000000E+00  0.00000000E+00  0.00000000E+00
  0.00000000E+00  0.00000000E+00  0.00000000E+00
  0.00000000E+00  0.00000000E+00  0.00000000E+00
  0.00000000E+00  0.00000000E+00  0.00000000E+00
  0.00000000E+00  0.00000000E+00  0.00000000E+00
  0.00000000E+00  0.00000000E+00  0.00000000E+00
  0.00000000E+00  0.00000000E+00  0.00000000E+00
  0.00000000E+00  0.00000000E+00  0.00000000E+00
  0.00000000E+00  0.00000000E+00  0.00000000E+00
  0.00000000E+00  0.00000000E+00  0.00000000E+00
  0.00000000E+00  0.00000000E+00  0.00000000E+00
  0.00000000E+00  0.00000000E+00  0.00000000E+00
