Ru  O  H                                
   1.00000000000000     
     9.3340239999999994    0.0000000000000000    0.0000000000000000
     0.0000000000000000   12.6784260000000000    0.0000000000000000
     0.0000000000000000    0.0000000000000000   29.9755059999999993
   Ru   O    H 
    48    98     1
Selective dynamics
Direct
  0.2926360000000017  0.3724270000000018  0.0411450000000002   F   F   F
  0.2926360000000017  0.1224270000000018  0.1468849999999975   F   F   F
  0.2927414676202957  0.3724809271997600  0.2538522061125335   T   T   T
  0.2927520182886667  0.1222278059902777  0.3560533088299920   T   T   T
  0.1259689999999978  0.1224270000000018  0.0411450000000002   F   F   F
  0.1259689999999978  0.3724270000000018  0.1468849999999975   F   F   F
  0.1259087811847692  0.1223624376773458  0.2525815972251308   T   T   T
  0.1259187107190769  0.3717930787663946  0.3630304543453562   T   T   T
  0.6259689999999978  0.3724270000000018  0.0411450000000002   F   F   F
  0.6259689999999978  0.1224270000000018  0.1468849999999975   F   F   F
  0.6259743178192139  0.3723953110134772  0.2538684904602633   T   T   T
  0.6259628668582025  0.1222151194868673  0.3559305707795417   T   T   T
  0.4593029999999985  0.1224270000000018  0.0411450000000002   F   F   F
  0.4593029999999985  0.3724270000000018  0.1468849999999975   F   F   F
  0.4592444294345341  0.1223529025395536  0.2525564443593566   T   T   T
  0.4587147401530700  0.3724345424260562  0.3625030188447056   T   T   T
  0.9593029999999985  0.3724270000000018  0.0411450000000002   F   F   F
  0.9593029999999985  0.1224270000000018  0.1468849999999975   F   F   F
  0.9592057632621120  0.3724758637736088  0.2538596022481059   T   T   T
  0.9590006232101587  0.1222191563475619  0.3560568247474478   T   T   T
  0.7926360000000017  0.1224270000000018  0.0411450000000002   F   F   F
  0.7926360000000017  0.3724270000000018  0.1468849999999975   F   F   F
  0.7926100890671250  0.1223791963626155  0.2525617849621469   T   T   T
  0.7930819561928359  0.3727164151565248  0.3624329958620436   T   T   T
  0.2926360000000017  0.8724270000000018  0.0411450000000002   F   F   F
  0.2926360000000017  0.6224270000000018  0.1468849999999975   F   F   F
  0.2927355266022502  0.8722408970849926  0.2538542576533160   T   T   T
  0.2913709165331539  0.6222296676533290  0.3550619211284527   T   T   T
  0.1259689999999978  0.6224270000000018  0.0411450000000002   F   F   F
  0.1259689999999978  0.8724270000000018  0.1468849999999975   F   F   F
  0.1261282882546908  0.6223450698979249  0.2519361153520023   T   T   T
  0.1259179981898413  0.8726358945424053  0.3630476620794951   T   T   T
  0.6259689999999978  0.8724270000000018  0.0411450000000002   F   F   F
  0.6259689999999978  0.6224270000000018  0.1468849999999975   F   F   F
  0.6259863320586518  0.8723693105837214  0.2538658506760356   T   T   T
  0.6243533311491021  0.6222397407160116  0.3602780579982294   T   T   T
  0.4593029999999985  0.6224270000000018  0.0411450000000002   F   F   F
  0.4593029999999985  0.8724270000000018  0.1468849999999975   F   F   F
  0.4611552128948730  0.6223746664389509  0.2529187762328178   T   T   T
  0.4586874437471664  0.8719905055646109  0.3624982865697319   T   T   T
  0.9593029999999985  0.8724270000000018  0.0411450000000002   F   F   F
  0.9593029999999985  0.6224270000000018  0.1468849999999975   F   F   F
  0.9592291060635674  0.8722812310830719  0.2538568332417128   T   T   T
  0.9594149442201783  0.6222160276397233  0.3549781252327691   T   T   T
  0.7926360000000017  0.6224270000000018  0.0411450000000002   F   F   F
  0.7926360000000017  0.8724270000000018  0.1468849999999975   F   F   F
  0.7910909509959723  0.6223803635042700  0.2528131966832419   T   T   T
  0.7930987424985219  0.8717086865816910  0.3624124734283072   T   T   T
  0.1259689999999978  0.4697060000000022  0.0411450000000002   F   F   F
  0.1259689999999978  0.2197060000000022  0.1468849999999975   F   F   F
  0.1259479226203339  0.4691668916878911  0.2532321930756254   T   T   T
  0.1258360332783326  0.2171766249843827  0.3604267157067795   T   T   T
  0.1259689999999978  0.2751489999999990  0.0411450000000002   F   F   F
  0.1259689999999978  0.0251489999999990  0.1468849999999975   F   F   F
  0.1259820649562400  0.2755526629581624  0.2532825645425305   T   T   T
  0.1258657186631211  0.0272645302100045  0.3603923946346939   T   T   T
  0.2926360000000017  0.1224270000000018  0.0822900000000004   F   F   F
  0.2926360000000017  0.3724270000000018  0.1880299999999977   F   F   F
  0.2925794277781719  0.1223332922855036  0.2936553478152675   T   T   T
  0.2921075792451049  0.3713513349718980  0.4001839516676640   T   T   T
  0.2926360000000017  0.1224270000000018  0.0000000000000000   F   F   F
  0.2926360000000017  0.3724270000000018  0.1057399999999973   F   F   F
  0.2925376658851917  0.1223254401002336  0.2115819840226294   T   T   T
  0.2923725067721108  0.3721246431915617  0.3190183862113400   T   T   T
  0.4593029999999985  0.4697060000000022  0.0411450000000002   F   F   F
  0.4593029999999985  0.2197060000000022  0.1468849999999975   F   F   F
  0.4595889322898969  0.4693043663902188  0.2534968676313198   T   T   T
  0.4593261322895330  0.2175443230134704  0.3603536622340187   T   T   T
  0.4593029999999985  0.2751489999999990  0.0411450000000002   F   F   F
  0.4593029999999985  0.0251489999999990  0.1468849999999975   F   F   F
  0.4592251064451531  0.2755063835494482  0.2534049033576693   T   T   T
  0.4593115050777570  0.0268958464676743  0.3603300607742739   T   T   T
  0.6259689999999978  0.1224270000000018  0.0822900000000004   F   F   F
  0.6259689999999978  0.3724270000000018  0.1880299999999977   F   F   F
  0.6259023398663146  0.1223594138435260  0.2936093789975160   T   T   T
  0.6259611839643213  0.3724493752175846  0.3991923885526134   T   T   T
  0.6259689999999978  0.1224270000000018  0.0000000000000000   F   F   F
  0.6259689999999978  0.3724270000000018  0.1057399999999973   F   F   F
  0.6259330837488335  0.1223607155326434  0.2115586991831933   T   T   T
  0.6257857790617436  0.3721094136797234  0.3190297259010961   T   T   T
  0.7926360000000017  0.4697060000000022  0.0411450000000002   F   F   F
  0.7926360000000017  0.2197060000000022  0.1468849999999975   F   F   F
  0.7924206543032426  0.4693273310600858  0.2534850671470892   T   T   T
  0.7925406056623387  0.2176056093503291  0.3603597813371024   T   T   T
  0.7926360000000017  0.2751489999999990  0.0411450000000002   F   F   F
  0.7926360000000017  0.0251489999999990  0.1468849999999975   F   F   F
  0.7927350756128604  0.2755194232188032  0.2533940351264334   T   T   T
  0.7925437685139443  0.0268048314290112  0.3602863285202105   T   T   T
  0.9593029999999985  0.1224270000000018  0.0822900000000004   F   F   F
  0.9593029999999985  0.3724270000000018  0.1880299999999977   F   F   F
  0.9593219847091063  0.1223783387304422  0.2936478257933146   T   T   T
  0.9596859052583540  0.3714147029523289  0.4001546324630212   T   T   T
  0.9593029999999985  0.1224270000000018  0.0000000000000000   F   F   F
  0.9593029999999985  0.3724270000000018  0.1057399999999973   F   F   F
  0.9593188384616695  0.1223650696718579  0.2115690152627820   T   T   T
  0.9594840863142906  0.3721082083677345  0.3190085078096700   T   T   T
  0.1259689999999978  0.9697060000000022  0.0411450000000002   F   F   F
  0.1259689999999978  0.7197060000000022  0.1468849999999975   F   F   F
  0.1259802488406763  0.9691973393591553  0.2533062561130066   T   T   T
  0.1254057439236860  0.7177722673776614  0.3601026098055229   T   T   T
  0.1259689999999978  0.7751489999999990  0.0411450000000002   F   F   F
  0.1259689999999978  0.5251489999999990  0.1468849999999975   F   F   F
  0.1259602958333375  0.7755573628759862  0.2532004925537237   T   T   T
  0.1254005095316089  0.5266739212094365  0.3600647045460903   T   T   T
  0.2926360000000017  0.6224270000000018  0.0822900000000004   F   F   F
  0.2926360000000017  0.8724270000000018  0.1880299999999977   F   F   F
  0.2931387171659878  0.6222924833231716  0.2928609586646971   T   T   T
  0.2920833244438867  0.8730704698024283  0.4002032823097181   T   T   T
  0.2926360000000017  0.6224270000000018  0.0000000000000000   F   F   F
  0.2926360000000017  0.8724270000000018  0.1057399999999973   F   F   F
  0.2933920914748356  0.6223431099941408  0.2114435132758743   T   T   T
  0.2923545857900223  0.8722839647160683  0.3190185759626374   T   T   T
  0.4593029999999985  0.9697060000000022  0.0411450000000002   F   F   F
  0.4593029999999985  0.7197060000000022  0.1468849999999975   F   F   F
  0.4592323777076999  0.9692369127813762  0.2534246212071594   T   T   T
  0.4566707746784147  0.7177648327978972  0.3601101350646800   T   T   T
  0.4593029999999985  0.7751489999999990  0.0411450000000002   F   F   F
  0.4593029999999985  0.5251489999999990  0.1468849999999975   F   F   F
  0.4595662275241210  0.7754523614195961  0.2534773035984657   T   T   T
  0.4566737268492957  0.5267040918486998  0.3601176843898060   T   T   T
  0.6259689999999978  0.6224270000000018  0.0822900000000004   F   F   F
  0.6259689999999978  0.8724270000000018  0.1880299999999977   F   F   F
  0.6262605861012531  0.6223569353783134  0.2953713189132898   T   T   T
  0.6259667805394784  0.8719452164316337  0.3991582806558682   T   T   T
  0.6259689999999978  0.6224270000000018  0.0000000000000000   F   F   F
  0.6259689999999978  0.8724270000000018  0.1057399999999973   F   F   F
  0.6260100546844711  0.6223816917669183  0.2116264235448924   T   T   T
  0.6257746944175011  0.8723644415965737  0.3190231906908494   T   T   T
  0.7926360000000017  0.9697060000000022  0.0411450000000002   F   F   F
  0.7926360000000017  0.7197060000000022  0.1468849999999975   F   F   F
  0.7927559576250545  0.9692601298750247  0.2534483831412757   T   T   T
  0.7946673212655568  0.7178218305084059  0.3599214634895276   T   T   T
  0.7926360000000017  0.7751489999999990  0.0411450000000002   F   F   F
  0.7926360000000017  0.5251489999999990  0.1468849999999975   F   F   F
  0.7924505655593634  0.7754606955734644  0.2534324988880670   T   T   T
  0.7945774909125944  0.5266165863298440  0.3598967937615640   T   T   T
  0.9593029999999985  0.6224270000000018  0.0822900000000004   F   F   F
  0.9593029999999985  0.8724270000000018  0.1880299999999977   F   F   F
  0.9588690725155260  0.6223470538411675  0.2928389309926089   T   T   T
  0.9596695943259377  0.8730762308191657  0.4001658057416151   T   T   T
  0.9593029999999985  0.6224270000000018  0.0000000000000000   F   F   F
  0.9593029999999985  0.8724270000000018  0.1057399999999973   F   F   F
  0.9589062193863356  0.6223584897451815  0.2113989219822088   T   T   T
  0.9595265169874239  0.8723699660826298  0.3190029577800928   T   T   T
  0.6317794191805604  0.6225943849210367  0.4239025054094938   T   T   T
  0.4963452974808362  0.6225461017746028  0.4457968286422798   T   T   T
  0.5263731057801166  0.6239402577340059  0.4772923331109169   T   T   T
 
  0.00000000E+00  0.00000000E+00  0.00000000E+00
  0.00000000E+00  0.00000000E+00  0.00000000E+00
  0.00000000E+00  0.00000000E+00  0.00000000E+00
  0.00000000E+00  0.00000000E+00  0.00000000E+00
  0.00000000E+00  0.00000000E+00  0.00000000E+00
  0.00000000E+00  0.00000000E+00  0.00000000E+00
  0.00000000E+00  0.00000000E+00  0.00000000E+00
  0.00000000E+00  0.00000000E+00  0.00000000E+00
  0.00000000E+00  0.00000000E+00  0.00000000E+00
  0.00000000E+00  0.00000000E+00  0.00000000E+00
  0.00000000E+00  0.00000000E+00  0.00000000E+00
  0.00000000E+00  0.00000000E+00  0.00000000E+00
  0.00000000E+00  0.00000000E+00  0.00000000E+00
  0.00000000E+00  0.00000000E+00  0.00000000E+00
  0.00000000E+00  0.00000000E+00  0.00000000E+00
  0.00000000E+00  0.00000000E+00  0.00000000E+00
  0.00000000E+00  0.00000000E+00  0.00000000E+00
  0.00000000E+00  0.00000000E+00  0.00000000E+00
  0.00000000E+00  0.00000000E+00  0.00000000E+00
  0.00000000E+00  0.00000000E+00  0.00000000E+00
  0.00000000E+00  0.00000000E+00  0.00000000E+00
  0.00000000E+00  0.00000000E+00  0.00000000E+00
  0.00000000E+00  0.00000000E+00  0.00000000E+00
  0.00000000E+00  0.00000000E+00  0.00000000E+00
  0.00000000E+00  0.00000000E+00  0.00000000E+00
  0.00000000E+00  0.00000000E+00  0.00000000E+00
  0.00000000E+00  0.00000000E+00  0.00000000E+00
  0.00000000E+00  0.00000000E+00  0.00000000E+00
  0.00000000E+00  0.00000000E+00  0.00000000E+00
  0.00000000E+00  0.00000000E+00  0.00000000E+00
  0.00000000E+00  0.00000000E+00  0.00000000E+00
  0.00000000E+00  0.00000000E+00  0.00000000E+00
  0.00000000E+00  0.00000000E+00  0.00000000E+00
  0.00000000E+00  0.00000000E+00  0.00000000E+00
  0.00000000E+00  0.00000000E+00  0.00000000E+00
  0.00000000E+00  0.00000000E+00  0.00000000E+00
  0.00000000E+00  0.00000000E+00  0.00000000E+00
  0.00000000E+00  0.00000000E+00  0.00000000E+00
  0.00000000E+00  0.00000000E+00  0.00000000E+00
  0.00000000E+00  0.00000000E+00  0.00000000E+00
  0.00000000E+00  0.00000000E+00  0.00000000E+00
  0.00000000E+00  0.00000000E+00  0.00000000E+00
  0.00000000E+00  0.00000000E+00  0.00000000E+00
  0.00000000E+00  0.00000000E+00  0.00000000E+00
  0.00000000E+00  0.00000000E+00  0.00000000E+00
  0.00000000E+00  0.00000000E+00  0.00000000E+00
  0.00000000E+00  0.00000000E+00  0.00000000E+00
  0.00000000E+00  0.00000000E+00  0.00000000E+00
  0.00000000E+00  0.00000000E+00  0.00000000E+00
  0.00000000E+00  0.00000000E+00  0.00000000E+00
  0.00000000E+00  0.00000000E+00  0.00000000E+00
  0.00000000E+00  0.00000000E+00  0.00000000E+00
  0.00000000E+00  0.00000000E+00  0.00000000E+00
  0.00000000E+00  0.00000000E+00  0.00000000E+00
  0.00000000E+00  0.00000000E+00  0.00000000E+00
  0.00000000E+00  0.00000000E+00  0.00000000E+00
  0.00000000E+00  0.00000000E+00  0.00000000E+00
  0.00000000E+00  0.00000000E+00  0.00000000E+00
  0.00000000E+00  0.00000000E+00  0.00000000E+00
  0.00000000E+00  0.00000000E+00  0.00000000E+00
  0.00000000E+00  0.00000000E+00  0.00000000E+00
  0.00000000E+00  0.00000000E+00  0.00000000E+00
  0.00000000E+00  0.00000000E+00  0.00000000E+00
  0.00000000E+00  0.00000000E+00  0.00000000E+00
  0.00000000E+00  0.00000000E+00  0.00000000E+00
  0.00000000E+00  0.00000000E+00  0.00000000E+00
  0.00000000E+00  0.00000000E+00  0.00000000E+00
  0.00000000E+00  0.00000000E+00  0.00000000E+00
  0.00000000E+00  0.00000000E+00  0.00000000E+00
  0.00000000E+00  0.00000000E+00  0.00000000E+00
  0.00000000E+00  0.00000000E+00  0.00000000E+00
  0.00000000E+00  0.00000000E+00  0.00000000E+00
  0.00000000E+00  0.00000000E+00  0.00000000E+00
  0.00000000E+00  0.00000000E+00  0.00000000E+00
  0.00000000E+00  0.00000000E+00  0.00000000E+00
  0.00000000E+00  0.00000000E+00  0.00000000E+00
  0.00000000E+00  0.00000000E+00  0.00000000E+00
  0.00000000E+00  0.00000000E+00  0.00000000E+00
  0.00000000E+00  0.00000000E+00  0.00000000E+00
  0.00000000E+00  0.00000000E+00  0.00000000E+00
  0.00000000E+00  0.00000000E+00  0.00000000E+00
  0.00000000E+00  0.00000000E+00  0.00000000E+00
  0.00000000E+00  0.00000000E+00  0.00000000E+00
  0.00000000E+00  0.00000000E+00  0.00000000E+00
  0.00000000E+00  0.00000000E+00  0.00000000E+00
  0.00000000E+00  0.00000000E+00  0.00000000E+00
  0.00000000E+00  0.00000000E+00  0.00000000E+00
  0.00000000E+00  0.00000000E+00  0.00000000E+00
  0.00000000E+00  0.00000000E+00  0.00000000E+00
  0.00000000E+00  0.00000000E+00  0.00000000E+00
  0.00000000E+00  0.00000000E+00  0.00000000E+00
  0.00000000E+00  0.00000000E+00  0.00000000E+00
  0.00000000E+00  0.00000000E+00  0.00000000E+00
  0.00000000E+00  0.00000000E+00  0.00000000E+00
  0.00000000E+00  0.00000000E+00  0.00000000E+00
  0.00000000E+00  0.00000000E+00  0.00000000E+00
  0.00000000E+00  0.00000000E+00  0.00000000E+00
  0.00000000E+00  0.00000000E+00  0.00000000E+00
  0.00000000E+00  0.00000000E+00  0.00000000E+00
  0.00000000E+00  0.00000000E+00  0.00000000E+00
  0.00000000E+00  0.00000000E+00  0.00000000E+00
  0.00000000E+00  0.00000000E+00  0.00000000E+00
  0.00000000E+00  0.00000000E+00  0.00000000E+00
  0.00000000E+00  0.00000000E+00  0.00000000E+00
  0.00000000E+00  0.00000000E+00  0.00000000E+00
  0.00000000E+00  0.00000000E+00  0.00000000E+00
  0.00000000E+00  0.00000000E+00  0.00000000E+00
  0.00000000E+00  0.00000000E+00  0.00000000E+00
  0.00000000E+00  0.00000000E+00  0.00000000E+00
  0.00000000E+00  0.00000000E+00  0.00000000E+00
  0.00000000E+00  0.00000000E+00  0.00000000E+00
  0.00000000E+00  0.00000000E+00  0.00000000E+00
  0.00000000E+00  0.00000000E+00  0.00000000E+00
  0.00000000E+00  0.00000000E+00  0.00000000E+00
  0.00000000E+00  0.00000000E+00  0.00000000E+00
  0.00000000E+00  0.00000000E+00  0.00000000E+00
  0.00000000E+00  0.00000000E+00  0.00000000E+00
  0.00000000E+00  0.00000000E+00  0.00000000E+00
  0.00000000E+00  0.00000000E+00  0.00000000E+00
  0.00000000E+00  0.00000000E+00  0.00000000E+00
  0.00000000E+00  0.00000000E+00  0.00000000E+00
  0.00000000E+00  0.00000000E+00  0.00000000E+00
  0.00000000E+00  0.00000000E+00  0.00000000E+00
  0.00000000E+00  0.00000000E+00  0.00000000E+00
  0.00000000E+00  0.00000000E+00  0.00000000E+00
  0.00000000E+00  0.00000000E+00  0.00000000E+00
  0.00000000E+00  0.00000000E+00  0.00000000E+00
  0.00000000E+00  0.00000000E+00  0.00000000E+00
  0.00000000E+00  0.00000000E+00  0.00000000E+00
  0.00000000E+00  0.00000000E+00  0.00000000E+00
  0.00000000E+00  0.00000000E+00  0.00000000E+00
  0.00000000E+00  0.00000000E+00  0.00000000E+00
  0.00000000E+00  0.00000000E+00  0.00000000E+00
  0.00000000E+00  0.00000000E+00  0.00000000E+00
  0.00000000E+00  0.00000000E+00  0.00000000E+00
  0.00000000E+00  0.00000000E+00  0.00000000E+00
  0.00000000E+00  0.00000000E+00  0.00000000E+00
  0.00000000E+00  0.00000000E+00  0.00000000E+00
  0.00000000E+00  0.00000000E+00  0.00000000E+00
  0.00000000E+00  0.00000000E+00  0.00000000E+00
  0.00000000E+00  0.00000000E+00  0.00000000E+00
  0.00000000E+00  0.00000000E+00  0.00000000E+00
  0.00000000E+00  0.00000000E+00  0.00000000E+00
  0.00000000E+00  0.00000000E+00  0.00000000E+00
  0.00000000E+00  0.00000000E+00  0.00000000E+00
  0.00000000E+00  0.00000000E+00  0.00000000E+00
  0.00000000E+00  0.00000000E+00  0.00000000E+00
