Ru  O  H 
 1.0000000000000000
     9.3340239999999994    0.0000000000000000    0.0000000000000000
     0.0000000000000000   12.6784260000000000    0.0000000000000000
     0.0000000000000000    0.0000000000000000   29.9755059999999993
 Ru  O   H  
  48  98   1
Selective dynamics
Cartesian
  2.7314714472640156  4.7217881599020224  1.2333421943700060   F   F   F
  2.7314714472640156  1.5521816599020228  4.4029521988099249   F   F   F
  2.7324558845630653  4.7224718719135588  7.6093483274394673   T   T   T
  2.7325543647548440  1.5496561933900790 10.6728780951533064   T   T   T
  1.1757976692559795  1.5521816599020228  1.2333421943700060   F   F   F
  1.1757976692559795  4.7217881599020224  4.4029521988099249   F   F   F
  1.1752355853894105  1.5513631112718542  7.5712611831114165   T   T   T
  1.1753282679009034  4.7137510364519057 10.8820215624118841   T   T   T
  5.8428096692559786  4.7217881599020224  1.2333421943700060   F   F   F
  5.8428096692559786  1.5521816599020228  4.4029521988099249   F   F   F
  5.8428593059081866  4.7213863934313691  7.6098364590026710   T   T   T
  5.8427524223632457  1.5494953484953888 10.6691989599856480   T   T   T
  4.2871452252719857  1.5521816599020228  1.2333421943700060   F   F   F
  4.2871452252719857  4.7217881599020224  4.4029521988099249   F   F   F
  4.2865985262082340  1.5512422207329286  7.5705072132325473   T   T   T
  4.2816543937424880  4.7218837859926452 10.8662114163976380   T   T   T
  8.9541572252719845  4.7217881599020224  1.2333421943700060   F   F   F
  8.9541572252719845  1.5521816599020228  4.4029521988099249   F   F   F
  8.9532496152268966  4.7224076756397784  7.6095700303456617   T   T   T
  8.9513348330585671  1.5495465295350281 10.6729834865581452   T   T   T
  7.3984834472640149  1.5521816599020228  1.2333421943700060   F   F   F
  7.3984834472640149  4.7217881599020224  4.4029521988099249   F   F   F
  7.3982415939946682  1.5515755850228607  7.5706673005035690   T   T   T
  7.4026460130708926  4.7254574885472529 10.8641124420606605   T   T   T
  2.7314714472640156 11.0610011599020233  1.2333421943700060   F   F   F
  2.7314714472640156  7.8913946599020237  4.4029521988099249   F   F   F
  2.7324004309580410 11.0586416678656807  7.6094098234125944   T   T   T
  2.7196631278224390  7.8888927963473661 10.6431607471574363   T   T   T
  1.1757976692559795  7.8913946599020237  1.2333421943700060   F   F   F
  1.1757976692559795 11.0610011599020233  4.4029521988099249   F   F   F
  1.1772844696481735  7.8903559151656975  7.5519125373505425   T   T   T
  1.1753216171359424 11.0636496138996741 10.8825373729498782   T   T   T
  5.8428096692559786 11.0610011599020233  1.2333421943700060   F   F   F
  5.8428096692559786  7.8913946599020237  4.4029521988099249   F   F   F
  5.8429714471074474 11.0602697489067285  7.6097573301346335   T   T   T
  5.8277289774256662  7.8890205069271300 10.7995170891943264   T   T   T
  4.2871452252719857  7.8913946599020237  1.2333421943700060   F   F   F
  4.2871452252719857 11.0610011599020233  4.4029521988099249   F   F   F
  4.3044338248858800  7.8907311527209218  7.5813682944794349   T   T   T
  4.2813996084347101 11.0554670975035396 10.8660695640606395   T   T   T
  8.9541572252719845 11.0610011599020233  1.2333421943700060   F   F   F
  8.9541572252719845  7.8913946599020237  4.4029521988099249   F   F   F
  8.9534674974959021 11.0591530394756514  7.6094870279780418   T   T   T
  8.9552021153097741  7.8887198624442254 10.6406489227835994   T   T   T
  7.3984834472640149  7.8913946599020237  1.2333421943700060   F   F   F
  7.3984834472640149 11.0610011599020233  4.4029521988099249   F   F   F
  7.3840619227792299  7.8908033825419510  7.5782034940576981   T   T   T
  7.4028026968509968 11.0518940763831921 10.8634972717250449   T   T   T
  1.1757976692559795  5.9551327627560280  1.2333421943700060   F   F   F
  1.1757976692559795  2.7855262627560280  4.4029521988099249   F   F   F
  1.1756009324883525  5.9482977179149712  7.5907631229315813   T   T   T
  1.1745565546847645  2.7534577687942727 10.8039731792288674   T   T   T
  1.1757976692559795  3.4884562354739872  1.2333421943700060   F   F   F
  1.1757976692559795  0.3188497354739873  4.4029521988099249   F   F   F
  1.1759196178710933  3.4935740464180012  7.5922730331400610   T   T   T
  1.1748336387788241  0.3456713286923094 10.8029443877267166   T   T   T
  2.7314714472640156  1.5521816599020228  2.4666843887400121   F   F   F
  2.7314714472640156  4.7217881599020224  5.6362943931799308   F   F   F
  2.7309434007877065  1.5509935935781216  8.8024676403687252   T   T   T
  2.7265391552557334  4.7081504204424505 11.9957164443178605   T   T   T
  2.7314714472640156  1.5521816599020228  0.0000000000000000   F   F   F
  2.7314714472640156  4.7217881599020224  3.1696100044399187   F   F   F
  2.7305535942763690  1.5508940402282394  6.3422770315622596   T   T   T
  2.7290119951510250  4.7179547514805913  9.5627375499882579   T   T   T
  4.2871452252719857  5.9551327627560280  1.2333421943700060   F   F   F
  4.2871452252719857  2.7855262627560280  4.4029521988099249   F   F   F
  4.2898141241282755  5.9500406807552721  7.5986968766638361   T   T   T
  4.2873611426176925  2.7581196010463884 10.8017833644177408   T   T   T
  4.2871452252719857  3.4884562354739872  1.2333421943700060   F   F   F
  4.2871452252719857  0.3188497354739873  4.4029521988099249   F   F   F
  4.2864181649616269  3.4929872963593178  7.5959402010273234   T   T   T
  4.2872246118718946  0.3409969991477280 10.8010758987195228   T   T   T
  5.8428096692559786  1.5521816599020228  2.4666843887400121   F   F   F
  5.8428096692559786  4.7217881599020224  5.6362943931799308   F   F   F
  5.8421874619683098  1.5513247738185052  8.8010897017963803   T   T   T
  5.8427367141914068  4.7220718424423707 11.9659938382131266   T   T   T
  5.8428096692559786  1.5521816599020228  0.0000000000000000   F   F   F
  5.8428096692559786  4.7217881599020224  3.1696100044399187   F   F   F
  5.8424744261056114  1.5513412771876705  6.3415790567181061   T   T   T
  5.8410994806210397  4.7177616652417544  9.5630774629266710   T   T   T
  7.3984834472640149  5.9551327627560280  1.2333421943700060   F   F   F
  7.3984834472640149  2.7855262627560280  4.4029521988099249   F   F   F
  7.3964734053621681  5.9503318366228388  7.5983431511779465   T   T   T
  7.3975930342268095  2.7588966153330396 10.8019667876289098   T   T   T
  7.3984834472640149  3.4884562354739872  1.2333421943700060   F   F   F
  7.3984834472640149  0.3188497354739873  4.4029521988099249   F   F   F
  7.3994082214122363  3.4931526188422564  7.5956144202965890   T   T   T
  7.3976225563596154  0.3398430717152028 10.7997650022756400   T   T   T
  8.9541572252719845  1.5521816599020228  2.4666843887400121   F   F   F
  8.9541572252719845  4.7217881599020224  5.6362943931799308   F   F   F
  8.9543344290024542  1.5515647115968425  8.8022421639545154   T   T   T
  8.9577312721432349  4.7089538266930733 11.9948375863231789   T   T   T
  8.9541572252719845  1.5521816599020228  0.0000000000000000   F   F   F
  8.9541572252719845  4.7217881599020224  3.1696100044399187   F   F   F
  8.9543050618533293  1.5513964808195064  6.3418882864236288   T   T   T
  8.9558474892756301  4.7177463837828819  9.5624414398997164   T   T   T
  1.1757976692559795 12.2943457627560271  1.2333421943700060   F   F   F
  1.1757976692559795  9.1247392627560284  4.4029521988099249   F   F   F
  1.1759026662048480 12.2878967464619198  7.5929831999529274   T   T   T
  1.1705402235215647  9.1002225767999132 10.7942579408412183   T   T   T
  1.1757976692559795  9.8276692354739872  1.2333421943700060   F   F   F
  1.1757976692559795  6.6580627354739867  4.4029521988099249   F   F   F
  1.1757164243554870  9.8328466339783756  7.5898128837471974   T   T   T
  1.1704913655802873  6.6773963361836870 10.7931217115096079   T   T   T
  2.7314714472640156  7.8913946599020237  2.4666843887400121   F   F   F
  2.7314714472640156 11.0610011599020233  5.6362943931799308   F   F   F
  2.7361638213565316  7.8896892001690633  8.7786554236193943   T   T   T
  2.7263127603590545 11.0691593441753646 11.9962958900945669   T   T   T
  2.7314714472640156  7.8913946599020237  0.0000000000000000   F   F   F
  2.7314714472640156 11.0610011599020233  3.1696100044399187   F   F   F
  2.7385288232363147  7.8903310666705684  6.3381263008620508   T   T   T
  2.7288447202741319 11.0591876976392616  9.5627432378793902   T   T   T
  4.2871452252719857 12.2943457627560271  1.2333421943700060   F   F   F
  4.2871452252719857  9.1247392627560284  4.4029521988099249   F   F   F
  4.2864860351007081 12.2883984751671314  7.5965312535428549   T   T   T
  4.2625759709469264  9.1001283180304924 10.7944835142920343   T   T   T
  4.2871452252719857  9.8276692354739872  1.2333421943700060   F   F   F
  4.2871452252719857  6.6580627354739867  4.4029521988099249   F   F   F
  4.2896021972995788  9.8315153807836122  7.5981104348796169   T   T   T
  4.2626035265807598  6.6777788524009374 10.7947098091326836   T   T   T
  5.8428096692559786  7.8913946599020237  2.4666843887400121   F   F   F
  5.8428096692559786 11.0610011599020233  5.6362943931799308   F   F   F
  5.8455313409231637  7.8905063507807274  8.8539047423131887   T   T   T
  5.8427889527582391 11.0548929025824449 11.9649714367496092   T   T   T
  5.8428096692559786  7.8913946599020237  0.0000000000000000   F   F   F
  5.8428096692559786 11.0610011599020233  3.1696100044399187   F   F   F
  5.8431928746661894  7.8908202228217048  6.3436091287284162   T   T   T
  5.8409960162856276 11.0602080178134479  9.5628815666926741   T   T   T
  7.3984834472640149 12.2943457627560271  1.2333421943700060   F   F   F
  7.3984834472640149  9.1247392627560284  4.4029521988099249   F   F   F
  7.3996031346152291 12.2886928313708985  7.5972435295416130   T   T   T
  7.4174438487083858  9.1008509592854043 10.7888279883590936   T   T   T
  7.3984834472640149  9.8276692354739872  1.2333421943700060   F   F   F
  7.3984834472640149  6.6580627354739867  4.4029521988099249   F   F   F
  7.3967525977446904  9.8316210447367016  7.5967673910143496   T   T   T
  7.4166053700379102  6.6766694201555143 10.7880885007806029   T   T   T
  8.9541572252719845  7.8913946599020237  2.4666843887400121   F   F   F
  8.9541572252719845 11.0610011599020233  5.6362943931799308   F   F   F
  8.9501069357176277  7.8903810684432818  8.7779951330025323   T   T   T
  8.9575790255085739 11.0692323847997542 11.9951725110025951   T   T   T
  8.9541572252719845  7.8913946599020237  0.0000000000000000   F   F   F
  8.9541572252719845 11.0610011599020233  3.1696100044399187   F   F   F
  8.9504536655012981  7.8905260577060252  6.3367896542713096   T   T   T
  8.9562435381970023 11.0602780596011634  9.5622750749549716   T   T   T
  5.8970442613374399  7.8935168372369224 12.7066920943174022   T   T   T
  4.6328989189732663  7.8929046829377931 13.3629855117475369   T   T   T
  4.9131792023061278  7.9105803861015422 14.3070791949202967   T   T   T
