Ir O 
 1.0000000000000000
     9.5301189999999991    0.0000000000000000    0.0000000000000000
     0.0000000000000000   12.7429520000000007    0.0000000000000000
     0.0000000000000000    0.0000000000000000   29.9954089999999987
 Ir  O  
  48  97
Selective dynamics
Cartesian
  2.7888559036839999  1.5600813845040000  1.2191034079870000   F   F   F
  2.7888559036839999  4.7458193845040002  4.4048258116500003   F   F   F
  2.7888559036839999  1.5600813845040000  7.6167042119610002   T   T   T
  2.7888559036839999  4.7458193845040002 10.7518843514589992   T   T   T
  1.2004995603109998  4.7458193845040002  1.2191034079870000   F   F   F
  1.2004995603109998  1.5600813845040000  4.4048258116500003   F   F   F
  1.2004995603109998  4.7458193845040002  7.6047060483609998   T   T   T
  1.2004995603109998  1.5600813845040000 10.8371313038369994   T   T   T
  5.9655590603109996  1.5600813845040000  1.2191034079870000   F   F   F
  5.9655590603109996  4.7458193845040002  4.4048258116500003   F   F   F
  5.9655590603109996  1.5600813845040000  7.6167042119610002   T   T   T
  5.9655590603109996  4.7458193845040002 10.7518843514589992   T   T   T
  4.3772122470569998  4.7458193845040002  1.2191034079870000   F   F   F
  4.3772122470569998  1.5600813845040000  4.4048258116500003   F   F   F
  4.3772122470569998  4.7458193845040002  7.6047060483609998   T   T   T
  4.3772122470569998  1.5600813845040000 10.8371313038369994   T   T   T
  9.1422717470569985  1.5600813845040000  1.2191034079870000   F   F   F
  9.1422717470569985  4.7458193845040002  4.4048258116500003   F   F   F
  9.1422717470569985  1.5600813845040000  7.6167042119610002   T   T   T
  9.1422717470569985  4.7458193845040002 10.7518843514589992   T   T   T
  7.5539154036839991  4.7458193845040002  1.2191034079870000   F   F   F
  7.5539154036839991  1.5600813845040000  4.4048258116500003   F   F   F
  7.5539154036839991  4.7458193845040002  7.6047060483609998   T   T   T
  7.5539154036839991  1.5600813845040000 10.8371313038369994   T   T   T
  2.7888559036839999  7.9315573845039999  1.2191034079870000   F   F   F
  2.7888559036839999 11.1172953845040006  4.4048258116500003   F   F   F
  2.7888559036839999  7.9315573845039999  7.6167042119610002   T   T   T
  2.7888559036839999 11.1172953845040006 10.7518843514589992   T   T   T
  1.2004995603109998 11.1172953845040006  1.2191034079870000   F   F   F
  1.2004995603109998  7.9315573845039999  4.4048258116500003   F   F   F
  1.2004995603109998 11.1172953845040006  7.6047060483609998   T   T   T
  1.2004995603109998  7.9315573845039999 10.8371313038369994   T   T   T
  5.9655590603109996  7.9315573845039999  1.2191034079870000   F   F   F
  5.9655590603109996 11.1172953845040006  4.4048258116500003   F   F   F
  5.9655590603109996  7.9315573845039999  7.6167042119610002   T   T   T
  5.9655590603109996 11.1172953845040006 10.7518843514589992   T   T   T
  4.3772122470569998 11.1172953845040006  1.2191034079870000   F   F   F
  4.3772122470569998  7.9315573845039999  4.4048258116500003   F   F   F
  4.3772122470569998 11.1172953845040006  7.6047060483609998   T   T   T
  4.3772122470569998  7.9315573845039999 10.8371313038369994   T   T   T
  9.1422717470569985  7.9315573845039999  1.2191034079870000   F   F   F
  9.1422717470569985 11.1172953845040006  4.4048258116500003   F   F   F
  9.1422717470569985  7.9315573845039999  7.6167042119610002   T   T   T
  9.1422717470569985 11.1172953845040006 10.7518843514589992   T   T   T
  7.5539154036839991 11.1172953845040006  1.2191034079870000   F   F   F
  7.5539154036839991  7.9315573845039999  4.4048258116500003   F   F   F
  7.5539154036839991 11.1172953845040006  7.6047060483609998   T   T   T
  7.5539154036839991  7.9315573845039999 10.8371313038369994   T   T   T
  1.2004995603109998  2.7791868593920004  1.2191034079870000   F   F   F
  1.2004995603109998  5.9649248593920001  4.4048258116500003   F   F   F
  1.2004995603109998  2.7805630982080003  7.6124148684739996   T   T   T
  1.2004995603109998  5.9643641695040008 10.8426804545020001   T   T   T
  1.2004995603109998  0.3409886525680000  1.2191034079870000   F   F   F
  1.2004995603109998  3.5267266525680001  4.4048258116500003   F   F   F
  1.2004995603109998  0.3395996708000000  7.6124148684739996   T   T   T
  1.2004995603109998  3.5272873424560003 10.8426804545020001   T   T   T
  2.7888559036839999  4.7458193845040002  2.4382068159740000   F   F   F
  2.7888559036839999  1.5600813845040000  5.6239292196369997   F   F   F
  2.7888559036839999  4.7458193845040002  8.8280987998349989   T   T   T
  2.7888559036839999  1.5600813845040000 12.0343680586629986   T   T   T
  2.7888559036839999  4.7458193845040002  0.0000000000000000   F   F   F
  2.7888559036839999  1.5600813845040000  3.1857523990719998   F   F   F
  2.7888559036839999  4.7458193845040002  6.3751042472239998   T   T   T
  2.7888559036839999  1.5600813845040000  9.5889023537109992   T   T   T
  4.3772122470569998  2.7791868593920004  1.2191034079870000   F   F   F
  4.3772122470569998  5.9649248593920001  4.4048258116500003   F   F   F
  4.3772122470569998  2.7805630982080003  7.6124148684739996   T   T   T
  4.3772122470569998  5.9643641695040008 10.8426804545020001   T   T   T
  4.3772122470569998  0.3409886525680000  1.2191034079870000   F   F   F
  4.3772122470569998  3.5267266525680001  4.4048258116500003   F   F   F
  4.3772122470569998  0.3395996708000000  7.6124148684739996   T   T   T
  4.3772122470569998  3.5272873424560003 10.8426804545020001   T   T   T
  5.9655590603109996  4.7458193845040002  2.4382068159740000   F   F   F
  5.9655590603109996  1.5600813845040000  5.6239292196369997   F   F   F
  5.9655590603109996  4.7458193845040002  8.8280987998349989   T   T   T
  5.9655590603109996  1.5600813845040000 12.0343680586629986   T   T   T
  5.9655590603109996  4.7458193845040002  0.0000000000000000   F   F   F
  5.9655590603109996  1.5600813845040000  3.1857523990719998   F   F   F
  5.9655590603109996  4.7458193845040002  6.3751042472239998   T   T   T
  5.9655590603109996  1.5600813845040000  9.5889023537109992   T   T   T
  7.5539154036839991  2.7791868593920004  1.2191034079870000   F   F   F
  7.5539154036839991  5.9649248593920001  4.4048258116500003   F   F   F
  7.5539154036839991  2.7805630982080003  7.6124148684739996   T   T   T
  7.5539154036839991  5.9643641695040008 10.8426804545020001   T   T   T
  7.5539154036839991  0.3409886525680000  1.2191034079870000   F   F   F
  7.5539154036839991  3.5267266525680001  4.4048258116500003   F   F   F
  7.5539154036839991  0.3395996708000000  7.6124148684739996   T   T   T
  7.5539154036839991  3.5272873424560003 10.8426804545020001   T   T   T
  9.1422717470569985  4.7458193845040002  2.4382068159740000   F   F   F
  9.1422717470569985  1.5600813845040000  5.6239292196369997   F   F   F
  9.1422717470569985  4.7458193845040002  8.8280987998349989   T   T   T
  9.1422717470569985  1.5600813845040000 12.0343680586629986   T   T   T
  9.1422717470569985  4.7458193845040002  0.0000000000000000   F   F   F
  9.1422717470569985  1.5600813845040000  3.1857523990719998   F   F   F
  9.1422717470569985  4.7458193845040002  6.3751042472239998   T   T   T
  9.1422717470569985  1.5600813845040000  9.5889023537109992   T   T   T
  1.2004995603109998  9.1506628593919999  1.2191034079870000   F   F   F
  1.2004995603109998 12.3364008593920005  4.4048258116500003   F   F   F
  1.2004995603109998  9.1520390982080002  7.6124148684739996   T   T   T
  1.2004995603109998 12.3358401695040012 10.8426804545020001   T   T   T
  1.2004995603109998  6.7124646525680003  1.2191034079870000   F   F   F
  1.2004995603109998  9.8982026525680009  4.4048258116500003   F   F   F
  1.2004995603109998  6.7110756707999997  7.6124148684739996   T   T   T
  1.2004995603109998  9.8987633424560002 10.8426804545020001   T   T   T
  2.7888559036839999 11.1172953845040006  2.4382068159740000   F   F   F
  2.7888559036839999  7.9315573845039999  5.6239292196369997   F   F   F
  2.7888559036839999 11.1172953845040006  8.8280987998349989   T   T   T
  2.7888559036839999  7.9315573845039999 12.0343680586629986   T   T   T
  2.7888559036839999 11.1172953845040006  0.0000000000000000   F   F   F
  2.7888559036839999  7.9315573845039999  3.1857523990719998   F   F   F
  2.7888559036839999 11.1172953845040006  6.3751042472239998   T   T   T
  2.7888559036839999  7.9315573845039999  9.5889023537109992   T   T   T
  4.3772122470569998  9.1506628593919999  1.2191034079870000   F   F   F
  4.3772122470569998 12.3364008593920005  4.4048258116500003   F   F   F
  4.3772122470569998  9.1520390982080002  7.6124148684739996   T   T   T
  4.3772122470569998 12.3358401695040012 10.8426804545020001   T   T   T
  4.3772122470569998  6.7124646525680003  1.2191034079870000   F   F   F
  4.3772122470569998  9.8982026525680009  4.4048258116500003   F   F   F
  4.3772122470569998  6.7110756707999997  7.6124148684739996   T   T   T
  4.3772122470569998  9.8987633424560002 10.8426804545020001   T   T   T
  5.9655590603109996 11.1172953845040006  2.4382068159740000   F   F   F
  5.9655590603109996  7.9315573845039999  5.6239292196369997   F   F   F
  5.9655590603109996 11.1172953845040006  8.8280987998349989   T   T   T
  5.9655590603109996  7.9315573845039999 12.0343680586629986   T   T   T
  5.9655590603109996 11.1172953845040006  0.0000000000000000   F   F   F
  5.9655590603109996  7.9315573845039999  3.1857523990719998   F   F   F
  5.9655590603109996 11.1172953845040006  6.3751042472239998   T   T   T
  5.9655590603109996  7.9315573845039999  9.5889023537109992   T   T   T
  7.5539154036839991  9.1506628593919999  1.2191034079870000   F   F   F
  7.5539154036839991 12.3364008593920005  4.4048258116500003   F   F   F
  7.5539154036839991  9.1520390982080002  7.6124148684739996   T   T   T
  7.5539154036839991 12.3358401695040012 10.8426804545020001   T   T   T
  7.5539154036839991  6.7124646525680003  1.2191034079870000   F   F   F
  7.5539154036839991  9.8982026525680009  4.4048258116500003   F   F   F
  7.5539154036839991  6.7110756707999997  7.6124148684739996   T   T   T
  7.5539154036839991  9.8987633424560002 10.8426804545020001   T   T   T
  9.1422717470569985 11.1172953845040006  2.4382068159740000   F   F   F
  9.1422717470569985  7.9315573845039999  5.6239292196369997   F   F   F
  9.1422717470569985 11.1172953845040006  8.8280987998349989   T   T   T
  9.1422717470569985  7.9315573845039999 12.0343680586629986   T   T   T
  9.1422717470569985 11.1172953845040006  0.0000000000000000   F   F   F
  9.1422717470569985  7.9315573845039999  3.1857523990719998   F   F   F
  9.1422717470569985 11.1172953845040006  6.3751042472239998   T   T   T
  9.1422717470569985  7.9315573845039999  9.5889023537109992   T   T   T
  4.5596345447145401  4.8402553629036804 12.3051465141909695   T   T   T
