Ru  O 
 1.0000000000000000
     9.3340239999999994    0.0000000000000000    0.0000000000000000
     0.0000000000000000   12.6784260000000000    0.0000000000000000
     0.0000000000000000    0.0000000000000000   29.9755059999999993
 Ru  O  
  48  96
Selective dynamics
Cartesian
  2.7314714472640156  4.7217881599020224  1.2333421943700060   F   F   F
  2.7314714472640156  1.5521816599020228  4.4029521988099249   F   F   F
  2.7313178352639826  4.7201977651146878  7.6063998501601953   T   T   T
  2.7310489024843076  1.5477833754145842 10.6748740634803543   T   T   T
  1.1757976692559795  1.5521816599020228  1.2333421943700060   F   F   F
  1.1757976692559795  4.7217881599020224  4.4029521988099249   F   F   F
  1.1754850820020768  1.5504757687589756  7.5736599670241027   T   T   T
  1.1754580695045405  4.7172061057738439 10.8714355780613428   T   T   T
  5.8428096692559786  4.7217881599020224  1.2333421943700060   F   F   F
  5.8428096692559786  1.5521816599020228  4.4029521988099249   F   F   F
  5.8426613342889420  4.7204527307802264  7.6065875800222633   T   T   T
  5.8423550190895179  1.5476627637569411 10.6744291427073072   T   T   T
  4.2871452252719857  1.5521816599020228  1.2333421943700060   F   F   F
  4.2871452252719857  4.7217881599020224  4.4029521988099249   F   F   F
  4.2868024106579981  1.5505594473475068  7.5736959226875049   T   T   T
  4.2867186711827321  4.7171282199353621 10.8715258171342217   T   T   T
  8.9541572252719845  4.7217881599020224  1.2333421943700060   F   F   F
  8.9541572252719845  1.5521816599020228  4.4029521988099249   F   F   F
  8.9539145237654072  4.7203660330575268  7.6066153243232515   T   T   T
  8.9536084904520123  1.5478713062307452 10.6744551124133960   T   T   T
  7.3984834472640149  1.5521816599020228  1.2333421943700060   F   F   F
  7.3984834472640149  4.7217881599020224  4.4029521988099249   F   F   F
  7.3982151973886126  1.5508925862536318  7.5734679574338264   T   T   T
  7.3980552691760604  4.7171894158996821 10.8713129145983736   T   T   T
  2.7314714472640156 11.0610011599020233  1.2333421943700060   F   F   F
  2.7314714472640156  7.8913946599020237  4.4029521988099249   F   F   F
  2.7313139292434756 11.0594118434144537  7.6063986456645933   T   T   T
  2.7310427716971772  7.8869926627399316 10.6748922735336791   T   T   T
  1.1757976692559795  7.8913946599020237  1.2333421943700060   F   F   F
  1.1757976692559795 11.0610011599020233  4.4029521988099249   F   F   F
  1.1754818411132044  7.8896769588369127  7.5736908684358584   T   T   T
  1.1754538223724387 11.0564192436235675 10.8714354511594369   T   T   T
  5.8428096692559786 11.0610011599020233  1.2333421943700060   F   F   F
  5.8428096692559786  7.8913946599020237  4.4029521988099249   F   F   F
  5.8426681209237428 11.0596655339595511  7.6065861534804187   T   T   T
  5.8423518346042886  7.8868474396698396 10.6744417566164245   T   T   T
  4.2871452252719857  7.8913946599020237  1.2333421943700060   F   F   F
  4.2871452252719857 11.0610011599020233  4.4029521988099249   F   F   F
  4.2867959175948851  7.8897805798410170  7.5737045684061659   T   T   T
  4.2867353493481195 11.0563419488607764 10.8715254190677975   T   T   T
  8.9541572252719845 11.0610011599020233  1.2333421943700060   F   F   F
  8.9541572252719845  7.8913946599020237  4.4029521988099249   F   F   F
  8.9539340750027634 11.0595788581828085  7.6066201728398690   T   T   T
  8.9536041120793719  7.8870930542599673 10.6744754951305332   T   T   T
  7.3984834472640149  7.8913946599020237  1.2333421943700060   F   F   F
  7.3984834472640149 11.0610011599020233  4.4029521988099249   F   F   F
  7.3982119248928102  7.8901112065763668  7.5734802122899829   T   T   T
  7.3980506697036361 11.0563982240488556 10.8712990072798625   T   T   T
  1.1757976692559795  5.9551327627560280  1.2333421943700060   F   F   F
  1.1757976692559795  2.7855262627560280  4.4029521988099249   F   F   F
  1.1753463761996878  5.9479768830687787  7.5937813284530202   T   T   T
  1.1751483719055347  2.7549693946942027 10.7947888911095564   T   T   T
  1.1757976692559795  3.4884562354739872  1.2333421943700060   F   F   F
  1.1757976692559795  0.3188497354739873  4.4029521988099249   F   F   F
  1.1754970342428892  3.4925228878516030  7.5923477779673663   T   T   T
  1.1750129008554708  0.3405988744295061 10.7929289447524095   T   T   T
  2.7314714472640156  1.5521816599020228  2.4666843887400121   F   F   F
  2.7314714472640156  4.7217881599020224  5.6362943931799308   F   F   F
  2.7311266686635562  1.5500685813463622  8.8067545817281889   T   T   T
  2.7311030071310904  4.7169667457624396 11.9734399268046818   T   T   T
  2.7314714472640156  1.5521816599020228  0.0000000000000000   F   F   F
  2.7314714472640156  4.7217881599020224  3.1696100044399187   F   F   F
  2.7312765961420893  1.5502359336435352  6.3442212880029247   T   T   T
  2.7311781013973917  4.7173206596700785  9.5574633570270517   T   T   T
  4.2871452252719857  5.9551327627560280  1.2333421943700060   F   F   F
  4.2871452252719857  2.7855262627560280  4.4029521988099249   F   F   F
  4.2871567219039521  5.9481642008336841  7.5937902235900516   T   T   T
  4.2868180744348523  2.7548498229396654 10.7947312909766708   T   T   T
  4.2871452252719857  3.4884562354739872  1.2333421943700060   F   F   F
  4.2871452252719857  0.3188497354739873  4.4029521988099249   F   F   F
  4.2870806046088301  3.4925664616022343  7.5924786443769134   T   T   T
  4.2869748505078418  0.3403743151890884 10.7930149549771315   T   T   T
  5.8428096692559786  1.5521816599020228  2.4666843887400121   F   F   F
  5.8428096692559786  4.7217881599020224  5.6362943931799308   F   F   F
  5.8422584227284275  1.5505937987717922  8.8062366939602352   T   T   T
  5.8423563186805580  4.7174082134971904 11.9733191038446964   T   T   T
  5.8428096692559786  1.5521816599020228  0.0000000000000000   F   F   F
  5.8428096692559786  4.7217881599020224  3.1696100044399187   F   F   F
  5.8425143725613333  1.5507595277633133  6.3439277661534321   T   T   T
  5.8423022044407196  4.7174597663557236  9.5572460384691702   T   T   T
  7.3984834472640149  5.9551327627560280  1.2333421943700060   F   F   F
  7.3984834472640149  2.7855262627560280  4.4029521988099249   F   F   F
  7.3983337771947300  5.9483156829824360  7.5945426713029205   T   T   T
  7.3979714919898294  2.7549191567580258 10.7943063450503409   T   T   T
  7.3984834472640149  3.4884562354739872  1.2333421943700060   F   F   F
  7.3984834472640149  0.3188497354739873  4.4029521988099249   F   F   F
  7.3982829160235397  3.4928992489488930  7.5919777000111965   T   T   T
  7.3980742883242279  0.3402998505839189 10.7921234816320215   T   T   T
  8.9541572252719845  1.5521816599020228  2.4666843887400121   F   F   F
  8.9541572252719845  4.7217881599020224  5.6362943931799308   F   F   F
  8.9539621069114386  1.5506382646554304  8.8062233886685739   T   T   T
  8.9537421169664846  4.7174403932456306 11.9731810398624052   T   T   T
  8.9541572252719845  1.5521816599020228  0.0000000000000000   F   F   F
  8.9541572252719845  4.7217881599020224  3.1696100044399187   F   F   F
  8.9540107003932174  1.5507729763404332  6.3440051926944490   T   T   T
  8.9539683150226335  4.7175078078685742  9.5573597660488332   T   T   T
  1.1757976692559795 12.2943457627560271  1.2333421943700060   F   F   F
  1.1757976692559795  9.1247392627560284  4.4029521988099249   F   F   F
  1.1753497258891790 12.2871899361619068  7.5937759050606743   T   T   T
  1.1751541942793047  9.0941877918909864 10.7947729839360917   T   T   T
  1.1757976692559795  9.8276692354739872  1.2333421943700060   F   F   F
  1.1757976692559795  6.6580627354739867  4.4029521988099249   F   F   F
  1.1755091629919303  9.8317356662716513  7.5923826037398507   T   T   T
  1.1750087825722386  6.6798106603233007 10.7929504247205656   T   T   T
  2.7314714472640156  7.8913946599020237  2.4666843887400121   F   F   F
  2.7314714472640156 11.0610011599020233  5.6362943931799308   F   F   F
  2.7311285633893090  7.8892655756040728  8.8067704220992749   T   T   T
  2.7311170539103444 11.0561947910926648 11.9734111700021959   T   T   T
  2.7314714472640156  7.8913946599020237  0.0000000000000000   F   F   F
  2.7314714472640156 11.0610011599020233  3.1696100044399187   F   F   F
  2.7312413035121970  7.8894504235277196  6.3442435287659809   T   T   T
  2.7311761257076053 11.0565538384286572  9.5574709015041837   T   T   T
  4.2871452252719857 12.2943457627560271  1.2333421943700060   F   F   F
  4.2871452252719857  9.1247392627560284  4.4029521988099249   F   F   F
  4.2871685088090317 12.2873610675129452  7.5937950339459332   T   T   T
  4.2868260130945206  9.0940519037930780 10.7947431073798068   T   T   T
  4.2871452252719857  9.8276692354739872  1.2333421943700060   F   F   F
  4.2871452252719857  6.6580627354739867  4.4029521988099249   F   F   F
  4.2870817987695951  9.8317856189466717  7.5924832918477136   T   T   T
  4.2869581165966606  6.6795683703853079 10.7930111995692108   T   T   T
  5.8428096692559786  7.8913946599020237  2.4666843887400121   F   F   F
  5.8428096692559786 11.0610011599020233  5.6362943931799308   F   F   F
  5.8422429088484424  7.8897924139084594  8.8062566897771966   T   T   T
  5.8423724877180501 11.0566128635306367 11.9733206084841850   T   T   T
  5.8428096692559786  7.8913946599020237  0.0000000000000000   F   F   F
  5.8428096692559786 11.0610011599020233  3.1696100044399187   F   F   F
  5.8425118390034418  7.8899839766151754  6.3439336881617461   T   T   T
  5.8423092708979194 11.0566650475368462  9.5572422268658759   T   T   T
  7.3984834472640149 12.2943457627560271  1.2333421943700060   F   F   F
  7.3984834472640149  9.1247392627560284  4.4029521988099249   F   F   F
  7.3983428094334007 12.2875269091180463  7.5945339505456708   T   T   T
  7.3979665522181248  9.0941254308119035 10.7942925205097744   T   T   T
  7.3984834472640149  9.8276692354739872  1.2333421943700060   F   F   F
  7.3984834472640149  6.6580627354739867  4.4029521988099249   F   F   F
  7.3982915196241343  9.8321148906114928  7.5919924007425230   T   T   T
  7.3980843666694840  6.6795000961892024 10.7921196906590158   T   T   T
  8.9541572252719845  7.8913946599020237  2.4666843887400121   F   F   F
  8.9541572252719845 11.0610011599020233  5.6362943931799308   F   F   F
  8.9539618997176209  7.8898477740805202  8.8062545680702424   T   T   T
  8.9537451138613946 11.0566582393615569 11.9731762644610580   T   T   T
  8.9541572252719845  7.8913946599020237  0.0000000000000000   F   F   F
  8.9541572252719845 11.0610011599020233  3.1696100044399187   F   F   F
  8.9540045199302796  7.8899827835014271  6.3440186170389499   T   T   T
  8.9539782315478806 11.0567322412965616  9.5573605402701585   T   T   T
