Ru  O 
 1.0000000000000000
     9.3340239999999994    0.0000000000000000    0.0000000000000000
     0.0000000000000000   12.6784260000000000    0.0000000000000000
     0.0000000000000000    0.0000000000000000   29.9755059999999993
 Ru  O  
  48  97
Selective dynamics
Cartesian
  2.7314714472640156  4.7217881599020224  1.2333421943700060   F   F   F
  2.7314714472640156  1.5521816599020228  4.4029521988099249   F   F   F
  2.7327899271702134  4.7230297686699600  7.6057011281755793   T   T   T
  2.7308050472674514  1.5487443268757468 10.6751920184387714   T   T   T
  1.1757976692559795  1.5521816599020228  1.2333421943700060   F   F   F
  1.1757976692559795  4.7217881599020224  4.4029521988099249   F   F   F
  1.1754389768487132  1.5508622406383294  7.5714665954789311   T   T   T
  1.1749313092955693  4.7204384668276127 10.8729182385275553   T   T   T
  5.8428096692559786  4.7217881599020224  1.2333421943700060   F   F   F
  5.8428096692559786  1.5521816599020228  4.4029521988099249   F   F   F
  5.8424494636272666  4.7195205546548795  7.6043943750924932   T   T   T
  5.8419108136435458  1.5485227870647200 10.6730650843528565   T   T   T
  4.2871452252719857  1.5521816599020228  1.2333421943700060   F   F   F
  4.2871452252719857  4.7217881599020224  4.4029521988099249   F   F   F
  4.2866543610456773  1.5508686354848236  7.5716323591953607   T   T   T
  4.2859211484976276  4.7149469099121539 10.8528641586030403   T   T   T
  8.9541572252719845  4.7217881599020224  1.2333421943700060   F   F   F
  8.9541572252719845  1.5521816599020228  4.4029521988099249   F   F   F
  8.9520559852190384  4.7232186262677027  7.6058476972945464   T   T   T
  8.9527496038030314  1.5487013835860532 10.6749510585356813   T   T   T
  7.3984834472640149  1.5521816599020228  1.2333421943700060   F   F   F
  7.3984834472640149  4.7217881599020224  4.4029521988099249   F   F   F
  7.3983186499141524  1.5511760061787674  7.5714616398521635   T   T   T
  7.3980026549260725  4.7151924316510767 10.8532254577156078   T   T   T
  2.7314714472640156 11.0610011599020233  1.2333421943700060   F   F   F
  2.7314714472640156  7.8913946599020237  4.4029521988099249   F   F   F
  2.7326396791731247 11.0572782210912770  7.6056599809677978   T   T   T
  2.7338138075199905  7.8877074917318080 10.6350059547624092   T   T   T
  1.1757976692559795  7.8913946599020237  1.2333421943700060   F   F   F
  1.1757976692559795 11.0610011599020233  4.4029521988099249   F   F   F
  1.1751845250097621  7.8899322823855291  7.5484106109025744   T   T   T
  1.1750189800406243 11.0546896485678587 10.8730174503755794   T   T   T
  5.8428096692559786 11.0610011599020233  1.2333421943700060   F   F   F
  5.8428096692559786  7.8913946599020237  4.4029521988099249   F   F   F
  5.8424836417985428 11.0613539355551129  7.6044784018732221   T   T   T
  5.8417799350884199  7.8879590236232175 10.9633825964607112   T   T   T
  4.2871452252719857  7.8913946599020237  1.2333421943700060   F   F   F
  4.2871452252719857 11.0610011599020233  4.4029521988099249   F   F   F
  4.3198206839840969  7.8903037310603032  7.5981751040781473   T   T   T
  4.2859708450916978 11.0603856054433365 10.8526477680296196   T   T   T
  8.9541572252719845 11.0610011599020233  1.2333421943700060   F   F   F
  8.9541572252719845  7.8913946599020237  4.4029521988099249   F   F   F
  8.9520835423625051 11.0574087493060809  7.6058238099992117   T   T   T
  8.9500337874719165  7.8877102137534685 10.6352642471992187   T   T   T
  7.3984834472640149  7.8913946599020237  1.2333421943700060   F   F   F
  7.3984834472640149 11.0610011599020233  4.4029521988099249   F   F   F
  7.3649654442420065  7.8902240742671008  7.5983979227164733   T   T   T
  7.3983270846126947 11.0602216910351974 10.8530437455961959   T   T   T
  1.1757976692559795  5.9551327627560280  1.2333421943700060   F   F   F
  1.1757976692559795  2.7855262627560280  4.4029521988099249   F   F   F
  1.1752677580523665  5.9469432746181941  7.5861676862135612   T   T   T
  1.1744715994387576  2.7550476823476839 10.8082830628983579   T   T   T
  1.1757976692559795  3.4884562354739872  1.2333421943700060   F   F   F
  1.1757976692559795  0.3188497354739873  4.4029521988099249   F   F   F
  1.1752912147336809  3.4941973209597861  7.5883298922938618   T   T   T
  1.1747200193702372  0.3421250460257432 10.8074909303294113   T   T   T
  2.7314714472640156  1.5521816599020228  2.4666843887400121   F   F   F
  2.7314714472640156  4.7217881599020224  5.6362943931799308   F   F   F
  2.7303790363584648  1.5504267923343196  8.8043542624804587   T   T   T
  2.7289325204595465  4.7162093220661720 11.9833481728421791   T   T   T
  2.7314714472640156  1.5521816599020228  0.0000000000000000   F   F   F
  2.7314714472640156  4.7217881599020224  3.1696100044399187   F   F   F
  2.7305816182668834  1.5505977796680246  6.3429329146509126   T   T   T
  2.7299545878842477  4.7181043010016275  9.5570615842827085   T   T   T
  4.2871452252719857  5.9551327627560280  1.2333421943700060   F   F   F
  4.2871452252719857  2.7855262627560280  4.4029521988099249   F   F   F
  4.2925414618627746  5.9504944695196924  7.6018561860220561   T   T   T
  4.2817345569140004  2.7554173272516378 10.8030525366837207   T   T   T
  4.2871452252719857  3.4884562354739872  1.2333421943700060   F   F   F
  4.2871452252719857  0.3188497354739873  4.4029521988099249   F   F   F
  4.2847208213118408  3.4915994004861539  7.5918377634960184   T   T   T
  4.2817361811276937  0.3416691256151669 10.8024511671378765   T   T   T
  5.8428096692559786  1.5521816599020228  2.4666843887400121   F   F   F
  5.8428096692559786  4.7217881599020224  5.6362943931799308   F   F   F
  5.8421532744277185  1.5507769729912790  8.8029904722874033   T   T   T
  5.8417440737460051  4.7160214495193271 11.9603122039918865   T   T   T
  5.8428096692559786  1.5521816599020228  0.0000000000000000   F   F   F
  5.8428096692559786  4.7217881599020224  3.1696100044399187   F   F   F
  5.8424925461409112  1.5510303611437390  6.3424148169456958   T   T   T
  5.8418313824889472  4.7026525020207526  9.5553733296020429   T   T   T
  7.3984834472640149  5.9551327627560280  1.2333421943700060   F   F   F
  7.3984834472640149  2.7855262627560280  4.4029521988099249   F   F   F
  7.3925565320263829  5.9504324057047597  7.6022169721518367   T   T   T
  7.4020951274178977  2.7555539128989124 10.8032463071101681   T   T   T
  7.3984834472640149  3.4884562354739872  1.2333421943700060   F   F   F
  7.3984834472640149  0.3188497354739873  4.4029521988099249   F   F   F
  7.4002607419558082  3.4919761410480561  7.5913963405615084   T   T   T
  7.4022412299196656  0.3414214256274346 10.8015146922556653   T   T   T
  8.9541572252719845  1.5521816599020228  2.4666843887400121   F   F   F
  8.9541572252719845  4.7217881599020224  5.6362943931799308   F   F   F
  8.9545606015903250  1.5510010738736324  8.8039594956694387   T   T   T
  8.9550162847228520  4.7168640941313980 11.9837372573287695   T   T   T
  8.9541572252719845  1.5521816599020228  0.0000000000000000   F   F   F
  8.9541572252719845  4.7217881599020224  3.1696100044399187   F   F   F
  8.9545407471126186  1.5511305265157795  6.3427406550117373   T   T   T
  8.9542651117806020  4.7186606000973406  9.5570726829153827   T   T   T
  1.1757976692559795 12.2943457627560271  1.2333421943700060   F   F   F
  1.1757976692559795  9.1247392627560284  4.4029521988099249   F   F   F
  1.1751582646392054 12.2862779674808742  7.5893161255932506   T   T   T
  1.1749391957536792  9.0877094892321377 10.7706686572431440   T   T   T
  1.1757976692559795  9.8276692354739872  1.2333421943700060   F   F   F
  1.1757976692559795  6.6580627354739867  4.4029521988099249   F   F   F
  1.1751961648143781  9.8333122741889287  7.5850318645160302   T   T   T
  1.1748245377309281  6.6873969548301941 10.7698907843645948   T   T   T
  2.7314714472640156  7.8913946599020237  2.4666843887400121   F   F   F
  2.7314714472640156 11.0610011599020233  5.6362943931799308   F   F   F
  2.7273584956832275  7.8892377974115648  8.7727903059149774   T   T   T
  2.7289498127726031 11.0580192204548027 11.9834139327632059   T   T   T
  2.7314714472640156  7.8913946599020237  0.0000000000000000   F   F   F
  2.7314714472640156 11.0610011599020233  3.1696100044399187   F   F   F
  2.7456655628862294  7.8901303128106521  6.3436261852257667   T   T   T
  2.7298213497314281 11.0575302188023645  9.5570185904029863   T   T   T
  4.2871452252719857 12.2943457627560271  1.2333421943700060   F   F   F
  4.2871452252719857  9.1247392627560284  4.4029521988099249   F   F   F
  4.2846938136956156 12.2889695241788157  7.5925980828354218   T   T   T
  4.2718201927736459  9.1032938463121376 10.7737299284814600   T   T   T
  4.2871452252719857  9.8276692354739872  1.2333421943700060   F   F   F
  4.2871452252719857  6.6580627354739867  4.4029521988099249   F   F   F
  4.2924548063551020  9.8302886762808175  7.6012913792656702   T   T   T
  4.2724419414957469  6.6726005713547307 10.7738181183623620   T   T   T
  5.8428096692559786  7.8913946599020237  2.4666843887400121   F   F   F
  5.8428096692559786 11.0610011599020233  5.6362943931799308   F   F   F
  5.8422480915260966  7.8895956099920204  8.9105836104678033   T   T   T
  5.8419782606236588 11.0591256394608255 11.9598657558309878   T   T   T
  5.8428096692559786  7.8913946599020237  0.0000000000000000   F   F   F
  5.8428096692559786 11.0610011599020233  3.1696100044399187   F   F   F
  5.8425034446319737  7.8905143763960712  6.3485337046770134   T   T   T
  5.8421074942499081 11.0742478374321909  9.5554296995851740   T   T   T
  7.3984834472640149 12.2943457627560271  1.2333421943700060   F   F   F
  7.3984834472640149  9.1247392627560284  4.4029521988099249   F   F   F
  7.4003797701282199 12.2891537095842995  7.5932669087869220   T   T   T
  7.4121550934511937  9.1031382760459660 10.7743904960924191   T   T   T
  7.3984834472640149  9.8276692354739872  1.2333421943700060   F   F   F
  7.3984834472640149  6.6580627354739867  4.4029521988099249   F   F   F
  7.3925402416718953  9.8303981868817196  7.6010496935020004   T   T   T
  7.4111288452845852  6.6726461526576619 10.7741773144737820   T   T   T
  8.9541572252719845  7.8913946599020237  2.4666843887400121   F   F   F
  8.9541572252719845 11.0610011599020233  5.6362943931799308   F   F   F
  8.9571978474114111  7.8895820651899022  8.7731086693197540   T   T   T
  8.9552822251486592 11.0587497366862930 11.9839340221130168   T   T   T
  8.9541572252719845  7.8913946599020237  0.0000000000000000   F   F   F
  8.9541572252719845 11.0610011599020233  3.1696100044399187   F   F   F
  8.9390043444660492  7.8903745487147710  6.3435684166614079   T   T   T
  8.9546423269381972 11.0577333216642337  9.5569941306477784   T   T   T
  5.8409672832135771  7.8897620092496794 12.6839307686720648   T   T   T
