Ru  O 
 1.0000000000000000
     9.3340239999999994    0.0000000000000000    0.0000000000000000
     0.0000000000000000   12.6784260000000000    0.0000000000000000
     0.0000000000000000    0.0000000000000000   29.9755059999999993
 Ru  O  
  48  97
Selective dynamics
Cartesian
  2.7314714472640156  4.7217881599020224  1.2333421943700060   F   F   F
  2.7314714472640156  1.5521816599020228  4.4029521988099249   F   F   F
  2.7328584702856356  4.7232230905989603  7.6038202941722766   T   T   T
  2.7310402306682913  1.5488449503414639 10.6768124535639721   T   T   T
  1.1757976692559795  1.5521816599020228  1.2333421943700060   F   F   F
  1.1757976692559795  4.7217881599020224  4.4029521988099249   F   F   F
  1.1753407022158362  1.5511299013451809  7.5733235035138859   T   T   T
  1.1751259614392950  4.7203919656643194 10.8713266119619245   T   T   T
  5.8428096692559786  4.7217881599020224  1.2333421943700060   F   F   F
  5.8428096692559786  1.5521816599020228  4.4029521988099249   F   F   F
  5.8424809491305849  4.7198287863340713  7.6023809498815309   T   T   T
  5.8419477372094706  1.5487354304333694 10.6735626308124818   T   T   T
  4.2871452252719857  1.5521816599020228  1.2333421943700060   F   F   F
  4.2871452252719857  4.7217881599020224  4.4029521988099249   F   F   F
  4.2865386449878988  1.5511562273955648  7.5727010714969865   T   T   T
  4.2866499609217676  4.7141991355128843 10.8539711606629119   T   T   T
  8.9541572252719845  4.7217881599020224  1.2333421943700060   F   F   F
  8.9541572252719845  1.5521816599020228  4.4029521988099249   F   F   F
  8.9521253094840105  4.7234129480516183  7.6038609091111944   T   T   T
  8.9526329003646854  1.5489116333010982 10.6765200969461898   T   T   T
  7.3984834472640149  1.5521816599020228  1.2333421943700060   F   F   F
  7.3984834472640149  4.7217881599020224  4.4029521988099249   F   F   F
  7.3982255130189749  1.5515165580273511  7.5725195707587085   T   T   T
  7.3971840450813007  4.7143740078233121 10.8540995950080745   T   T   T
  2.7314714472640156 11.0610011599020233  1.2333421943700060   F   F   F
  2.7314714472640156  7.8913946599020237  4.4029521988099249   F   F   F
  2.7325841205975507 11.0576622973395899  7.6038319181007834   T   T   T
  2.7333830543283621  7.8879377000930928 10.6373031169461889   T   T   T
  1.1757976692559795  7.8913946599020237  1.2333421943700060   F   F   F
  1.1757976692559795 11.0610011599020233  4.4029521988099249   F   F   F
  1.1751823486104582  7.8901858354717049  7.5501477347618149   T   T   T
  1.1750450339796910 11.0551928780374933 10.8711370317897806   T   T   T
  5.8428096692559786 11.0610011599020233  1.2333421943700060   F   F   F
  5.8428096692559786  7.8913946599020237  4.4029521988099249   F   F   F
  5.8423934040572547 11.0615622022455256  7.6022718534891709   T   T   T
  5.8417565759334904  7.8881218847794576 10.9663002712528250   T   T   T
  4.2871452252719857  7.8913946599020237  1.2333421943700060   F   F   F
  4.2871452252719857 11.0610011599020233  4.4029521988099249   F   F   F
  4.3178485477392883  7.8905236098305966  7.5975820233957654   T   T   T
  4.2865347598942618 11.0616054861322013 10.8537670066764136   T   T   T
  8.9541572252719845 11.0610011599020233  1.2333421943700060   F   F   F
  8.9541572252719845  7.8913946599020237  4.4029521988099249   F   F   F
  8.9519569728511463 11.0577760864316605  7.6038592204809490   T   T   T
  8.9503554259989961  7.8879966285656344 10.6379093910374838   T   T   T
  7.3984834472640149  7.8913946599020237  1.2333421943700060   F   F   F
  7.3984834472640149 11.0610011599020233  4.4029521988099249   F   F   F
  7.3669511910988543  7.8905424575656609  7.5979285889925050   T   T   T
  7.3972108318275049 11.0613593485447890 10.8537556332980056   T   T   T
  1.1757976692559795  5.9551327627560280  1.2333421943700060   F   F   F
  1.1757976692559795  2.7855262627560280  4.4029521988099249   F   F   F
  1.1753461159552947  5.9467916974450636  7.5843409218885665   T   T   T
  1.1746949897958789  2.7547503227120678 10.7986375484906585   T   T   T
  1.1757976692559795  3.4884562354739872  1.2333421943700060   F   F   F
  1.1757976692559795  0.3188497354739873  4.4029521988099249   F   F   F
  1.1753254811282874  3.4942380395662669  7.5866065409216077   T   T   T
  1.1746440323621337  0.3428184158239660 10.7973874980431930   T   T   T
  2.7314714472640156  1.5521816599020228  2.4666843887400121   F   F   F
  2.7314714472640156  4.7217881599020224  5.6362943931799308   F   F   F
  2.7304775297807429  1.5507481472221232  8.8069820050354259   T   T   T
  2.7301250779585229  4.7180039508930109 11.9695997926572417   T   T   T
  2.7314714472640156  1.5521816599020228  0.0000000000000000   F   F   F
  2.7314714472640156  4.7217881599020224  3.1696100044399187   F   F   F
  2.7302364816368314  1.5508804012769291  6.3442669093254027   T   T   T
  2.7307264265182094  4.7181851986785928  9.5527077058955872   T   T   T
  4.2871452252719857  5.9551327627560280  1.2333421943700060   F   F   F
  4.2871452252719857  2.7855262627560280  4.4029521988099249   F   F   F
  4.2923412069729014  5.9510186050439637  7.5992437799199983   T   T   T
  4.2819109783944862  2.7555492435165836 10.7947988255006209   T   T   T
  4.2871452252719857  3.4884562354739872  1.2333421943700060   F   F   F
  4.2871452252719857  0.3188497354739873  4.4029521988099249   F   F   F
  4.2849689550772334  3.4918342681797725  7.5895762759550820   T   T   T
  4.2818441092819111  0.3420130086847122 10.7935814686607809   T   T   T
  5.8428096692559786  1.5521816599020228  2.4666843887400121   F   F   F
  5.8428096692559786  4.7217881599020224  5.6362943931799308   F   F   F
  5.8420956941092790  1.5511855099921636  8.8053255306147875   T   T   T
  5.8416322819891322  4.7205289818357050 11.9528593798417067   T   T   T
  5.8428096692559786  1.5521816599020228  0.0000000000000000   F   F   F
  5.8428096692559786  4.7217881599020224  3.1696100044399187   F   F   F
  5.8424213544843457  1.5513755916148186  6.3435107759519100   T   T   T
  5.8418899918304739  4.7020182857149795  9.5507385419522137   T   T   T
  7.3984834472640149  5.9551327627560280  1.2333421943700060   F   F   F
  7.3984834472640149  2.7855262627560280  4.4029521988099249   F   F   F
  7.3928026027214635  5.9510097163195059  7.5997579003473748   T   T   T
  7.4020544274800688  2.7555749340156503 10.7944539510017048   T   T   T
  7.3984834472640149  3.4884562354739872  1.2333421943700060   F   F   F
  7.3984834472640149  0.3188497354739873  4.4029521988099249   F   F   F
  7.4001539721729390  3.4922233939929441  7.5891937181392048   T   T   T
  7.4021421244973853  0.3417294916366340 10.7926857243612222   T   T   T
  8.9541572252719845  1.5521816599020228  2.4666843887400121   F   F   F
  8.9541572252719845  4.7217881599020224  5.6362943931799308   F   F   F
  8.9542178500652412  1.5512631033983182  8.8066211558044749   T   T   T
  8.9541082136837886  4.7185094405903358 11.9691689596954731   T   T   T
  8.9541572252719845  1.5521816599020228  0.0000000000000000   F   F   F
  8.9541572252719845  4.7217881599020224  3.1696100044399187   F   F   F
  8.9548107191183970  1.5513135945100036  6.3440289641275944   T   T   T
  8.9537279298142636  4.7184865340029685  9.5525164153196087   T   T   T
  1.1757976692559795 12.2943457627560271  1.2333421943700060   F   F   F
  1.1757976692559795  9.1247392627560284  4.4029521988099249   F   F   F
  1.1751340870342855 12.2867443550944930  7.5875769635321157   T   T   T
  1.1748728166635432  9.0871680592031208 10.7597028895555358   T   T   T
  1.1757976692559795  9.8276692354739872  1.2333421943700060   F   F   F
  1.1757976692559795  6.6580627354739867  4.4029521988099249   F   F   F
  1.1750810558879645  9.8340365821933968  7.5832097966610714   T   T   T
  1.1746586477382659  6.6885602551655490 10.7594538890544520   T   T   T
  2.7314714472640156  7.8913946599020237  2.4666843887400121   F   F   F
  2.7314714472640156 11.0610011599020233  5.6362943931799308   F   F   F
  2.7271665152710023  7.8894686169711283  8.7767358747234798   T   T   T
  2.7299793210264043 11.0569835938962928 11.9695259575635564   T   T   T
  2.7314714472640156  7.8913946599020237  0.0000000000000000   F   F   F
  2.7314714472640156 11.0610011599020233  3.1696100044399187   F   F   F
  2.7444020635311874  7.8902589236833727  6.3439704652574544   T   T   T
  2.7305175045344430 11.0583083112370897  9.5525720080798973   T   T   T
  4.2871452252719857 12.2943457627560271  1.2333421943700060   F   F   F
  4.2871452252719857  9.1247392627560284  4.4029521988099249   F   F   F
  4.2848090211412231 12.2892920964445871  7.5903913197795516   T   T   T
  4.2735476897805489  9.1033701119168686 10.7638751684234606   T   T   T
  4.2871452252719857  9.8276692354739872  1.2333421943700060   F   F   F
  4.2871452252719857  6.6580627354739867  4.4029521988099249   F   F   F
  4.2921004650764480  9.8301860777102306  7.5986130437260959   T   T   T
  4.2743471700717270  6.6728747548987410 10.7635405929026042   T   T   T
  5.8428096692559786  7.8913946599020237  2.4666843887400121   F   F   F
  5.8428096692559786 11.0610011599020233  5.6362943931799308   F   F   F
  5.8422450804672126  7.8898180358926373  8.9029369969305527   T   T   T
  5.8416980801132734 11.0553381107137074 11.9525051059029046   T   T   T
  5.8428096692559786  7.8913946599020237  0.0000000000000000   F   F   F
  5.8428096692559786 11.0610011599020233  3.1696100044399187   F   F   F
  5.8425352482572306  7.8907415078899605  6.3493868562414901   T   T   T
  5.8418324073848007 11.0751372683357268  9.5505140595202835   T   T   T
  7.3984834472640149 12.2943457627560271  1.2333421943700060   F   F   F
  7.3984834472640149  9.1247392627560284  4.4029521988099249   F   F   F
  7.4000475716788738 12.2894799587633514  7.5908569012446367   T   T   T
  7.4101194440446818  9.1032338856355022 10.7641113464304485   T   T   T
  7.3984834472640149  9.8276692354739872  1.2333421943700060   F   F   F
  7.3984834472640149  6.6580627354739867  4.4029521988099249   F   F   F
  7.3927567883249443  9.8304672504348964  7.5984748580757007   T   T   T
  7.4093396474718602  6.6729737100156417 10.7647198255205758   T   T   T
  8.9541572252719845  7.8913946599020237  2.4666843887400121   F   F   F
  8.9541572252719845 11.0610011599020233  5.6362943931799308   F   F   F
  8.9572933830505956  7.8896463135943229  8.7772623956635734   T   T   T
  8.9540734138872828 11.0573523548962669 11.9689734538569397   T   T   T
  8.9541572252719845  7.8913946599020237  0.0000000000000000   F   F   F
  8.9541572252719845 11.0610011599020233  3.1696100044399187   F   F   F
  8.9402249463804662  7.8905186335209798  6.3439073747962622   T   T   T
  8.9537926491281805 11.0583094674305560  9.5523301377563641   T   T   T
  5.8411516976943494  7.8904652606063630 12.6748958457603358   T   T   T
