Ir O                                    
   1.00000000000000     
     9.5301189999999991    0.0000000000000000    0.0000000000000000
     0.0000000000000000   12.7429520000000007    0.0000000000000000
     0.0000000000000000    0.0000000000000000   29.9954089999999987
   Ir   O 
    48   100
Selective dynamics
Direct
  0.2926360000000017  0.1224270000000018  0.0406430000000029   F   F   F
  0.2926360000000017  0.3724270000000018  0.1468500000000006   F   F   F
  0.2921400774859452  0.1228160380841370  0.2538307095845126   T   T   T
  0.2916902969641775  0.3731779002808369  0.3587064303613617   T   T   T
  0.1259689999999978  0.3724270000000018  0.0406430000000029   F   F   F
  0.1259689999999978  0.1224270000000018  0.1468500000000006   F   F   F
  0.1254040567468404  0.3727169666935871  0.2533054788452663   T   T   T
  0.1248445178427664  0.1241500959350888  0.3612202401842445   T   T   T
  0.6259689999999978  0.1224270000000018  0.0406430000000029   F   F   F
  0.6259689999999978  0.3724270000000018  0.1468500000000006   F   F   F
  0.6254606487730014  0.1223620818924654  0.2537471849072124   T   T   T
  0.6251307305722940  0.3731527387264614  0.3649375465441801   T   T   T
  0.4593029999999985  0.3724270000000018  0.0406430000000029   F   F   F
  0.4593029999999985  0.1224270000000018  0.1468500000000006   F   F   F
  0.4607226741563175  0.3727154249066126  0.2539203853215389   T   T   T
  0.4583995658242720  0.1234704518237791  0.3608388881267131   T   T   T
  0.9593029999999985  0.1224270000000018  0.0406430000000029   F   F   F
  0.9593029999999985  0.3724270000000018  0.1468500000000006   F   F   F
  0.9587461143296698  0.1227861183317861  0.2538524941896701   T   T   T
  0.9584332999477601  0.3731721717722030  0.3587797269578522   T   T   T
  0.7926360000000017  0.3724270000000018  0.0406430000000029   F   F   F
  0.7926360000000017  0.1224270000000018  0.1468500000000006   F   F   F
  0.7901461740294405  0.3727021835607055  0.2539101831914714   T   T   T
  0.7913105678301945  0.1236311775775265  0.3608851585811640   T   T   T
  0.2926360000000017  0.6224270000000018  0.0406430000000029   F   F   F
  0.2926360000000017  0.8724270000000018  0.1468500000000006   F   F   F
  0.2921260860471181  0.6226385785650703  0.2538321019768652   T   T   T
  0.2912860520035719  0.8731537972211000  0.3627397602460489   T   T   T
  0.1259689999999978  0.8724270000000018  0.0406430000000029   F   F   F
  0.1259689999999978  0.6224270000000018  0.1468500000000006   F   F   F
  0.1254564650096567  0.8727326390642873  0.2536599173722358   T   T   T
  0.1248233215044467  0.6221725792418024  0.3611962954962086   T   T   T
  0.6259689999999978  0.6224270000000018  0.0406430000000029   F   F   F
  0.6259689999999978  0.8724270000000018  0.1468500000000006   F   F   F
  0.6254618037954536  0.6230742037624037  0.2537546069869341   T   T   T
  0.6245022088183015  0.8731813592887101  0.3628269042761377   T   T   T
  0.4593029999999985  0.8724270000000018  0.0406430000000029   F   F   F
  0.4593029999999985  0.6224270000000018  0.1468500000000006   F   F   F
  0.4587025849909009  0.8727184703010930  0.2536584952366889   T   T   T
  0.4583882272863918  0.6228369623165507  0.3608299822525720   T   T   T
  0.9593029999999985  0.6224270000000018  0.0406430000000029   F   F   F
  0.9593029999999985  0.8724270000000018  0.1468500000000006   F   F   F
  0.9587396057664656  0.6226635028744619  0.2538550054785073   T   T   T
  0.9582268317247307  0.8731537553497740  0.3625696326449440   T   T   T
  0.7926360000000017  0.8724270000000018  0.0406430000000029   F   F   F
  0.7926360000000017  0.6224270000000018  0.1468500000000006   F   F   F
  0.7921603539319224  0.8727189644102309  0.2536615331326348   T   T   T
  0.7912836894037537  0.6226842242040240  0.3608698326695489   T   T   T
  0.1259689999999978  0.2180960000000027  0.0406430000000029   F   F   F
  0.1259689999999978  0.4680960000000027  0.1468500000000006   F   F   F
  0.1254482663413925  0.2185415372075601  0.2537008928719265   T   T   T
  0.1249649393416199  0.4675983318611405  0.3631088540060415   T   T   T
  0.1259689999999978  0.0267589999999984  0.0406430000000029   F   F   F
  0.1259689999999978  0.2767589999999984  0.1468500000000006   F   F   F
  0.1254283202341883  0.0268860589985875  0.2534027211391856   T   T   T
  0.1249848043745371  0.2786872451721385  0.3631704674370281   T   T   T
  0.2926360000000017  0.3724270000000018  0.0812859999999986   F   F   F
  0.2926360000000017  0.1224270000000018  0.1874930000000035   F   F   F
  0.2925468313252937  0.3722340288839826  0.2940176159218638   T   T   T
  0.2919520730380367  0.1243131727739872  0.4002895002637911   T   T   T
  0.2926360000000017  0.3724270000000018  0.0000000000000000   F   F   F
  0.2926360000000017  0.1224270000000018  0.1062080000000023   F   F   F
  0.2927481643343124  0.3727294401852093  0.2126615149041769   T   T   T
  0.2915575900001723  0.1244424943117102  0.3193989628395471   T   T   T
  0.4593029999999985  0.2180960000000027  0.0406430000000029   F   F   F
  0.4593029999999985  0.4680960000000027  0.1468500000000006   F   F   F
  0.4592330846668602  0.2184289826639911  0.2536722226220646   T   T   T
  0.4580088694314967  0.4684196489135638  0.3609768581210995   T   T   T
  0.4593029999999985  0.0267589999999984  0.0406430000000029   F   F   F
  0.4593029999999985  0.2767589999999984  0.1468500000000006   F   F   F
  0.4586356621673484  0.0266739417023312  0.2534235977119550   T   T   T
  0.4580959227042254  0.2778849326823128  0.3610724858190176   T   T   T
  0.6259689999999978  0.3724270000000018  0.0812859999999986   F   F   F
  0.6259689999999978  0.1224270000000018  0.1874930000000035   F   F   F
  0.6253617961680462  0.3727152638950980  0.2956877151323659   T   T   T
  0.6248340201858844  0.1231513572135819  0.3999889299681361   T   T   T
  0.6259689999999978  0.3724270000000018  0.0000000000000000   F   F   F
  0.6259689999999978  0.1224270000000018  0.1062080000000023   F   F   F
  0.6255382295987947  0.3726717933309308  0.2125206861716346   T   T   T
  0.6249588253182875  0.1230392992465128  0.3192166728952047   T   T   T
  0.7926360000000017  0.2180960000000027  0.0406430000000029   F   F   F
  0.7926360000000017  0.4680960000000027  0.1468500000000006   F   F   F
  0.7916458512849265  0.2183870500004473  0.2536871573673317   T   T   T
  0.7918462401311676  0.4681945595631288  0.3611769580030365   T   T   T
  0.7926360000000017  0.0267589999999984  0.0406430000000029   F   F   F
  0.7926360000000017  0.2767589999999984  0.1468500000000006   F   F   F
  0.7922498145447406  0.0266489150489502  0.2533958614503722   T   T   T
  0.7917994122425019  0.2781169104476590  0.3612918759964304   T   T   T
  0.9593029999999985  0.3724270000000018  0.0812859999999986   F   F   F
  0.9593029999999985  0.1224270000000018  0.1874930000000035   F   F   F
  0.9580541698681154  0.3720064225775016  0.2940149193551229   T   T   T
  0.9577490484570120  0.1240786121206807  0.4003069425003410   T   T   T
  0.9593029999999985  0.3724270000000018  0.0000000000000000   F   F   F
  0.9593029999999985  0.1224270000000018  0.1062080000000023   F   F   F
  0.9583290269567558  0.3726900569389105  0.2126482382152281   T   T   T
  0.9582707050106538  0.1245048790959309  0.3194345706433078   T   T   T
  0.1259689999999978  0.7180960000000027  0.0406430000000029   F   F   F
  0.1259689999999978  0.9680960000000027  0.1468500000000006   F   F   F
  0.1254197034032882  0.7185715329232715  0.2533000481715073   T   T   T
  0.1250019122670556  0.9694774248426400  0.3577770820217064   T   T   T
  0.1259689999999978  0.5267589999999984  0.0406430000000029   F   F   F
  0.1259689999999978  0.7767589999999984  0.1468500000000006   F   F   F
  0.1254200842663563  0.5268601953854798  0.2538510580683693   T   T   T
  0.1249974958345831  0.7768493487878707  0.3578685983448625   T   T   T
  0.2926360000000017  0.8724270000000018  0.0812859999999986   F   F   F
  0.2926360000000017  0.6224270000000018  0.1874930000000035   F   F   F
  0.2920220617723264  0.8727927741986522  0.2946743190987427   T   T   T
  0.2919237931122560  0.6219545043752955  0.4002814805162739   T   T   T
  0.2926360000000017  0.8724270000000018  0.0000000000000000   F   F   F
  0.2926360000000017  0.6224270000000018  0.1062080000000023   F   F   F
  0.2921914147474967  0.8726471101488524  0.2127829111381879   T   T   T
  0.2915387281398120  0.6216930300513483  0.3193964238517975   T   T   T
  0.4593029999999985  0.7180960000000027  0.0406430000000029   F   F   F
  0.4593029999999985  0.9680960000000027  0.1468500000000006   F   F   F
  0.4586332228876690  0.7187619303265474  0.2533277724266003   T   T   T
  0.4576283972816875  0.9688711136823375  0.3585209176181781   T   T   T
  0.4593029999999985  0.5267589999999984  0.0406430000000029   F   F   F
  0.4593029999999985  0.7767589999999984  0.1468500000000006   F   F   F
  0.4591978690438995  0.5269893887224627  0.2538022655696908   T   T   T
  0.4576701464806700  0.7774556312762149  0.3586343918655327   T   T   T
  0.6259689999999978  0.8724270000000018  0.0812859999999986   F   F   F
  0.6259689999999978  0.6224270000000018  0.1874930000000035   F   F   F
  0.6253339505353469  0.8727234407737943  0.2947330747670372   T   T   T
  0.6248227145766525  0.6231026776308198  0.3999833642059260   T   T   T
  0.6259689999999978  0.8724270000000018  0.0000000000000000   F   F   F
  0.6259689999999978  0.6224270000000018  0.1062080000000023   F   F   F
  0.6255063670733587  0.8726114678555674  0.2128014937651701   T   T   T
  0.6249399984393975  0.6230514560498261  0.3192173169787199   T   T   T
  0.7926360000000017  0.7180960000000027  0.0406430000000029   F   F   F
  0.7926360000000017  0.9680960000000027  0.1468500000000006   F   F   F
  0.7922622091993616  0.7187954906692980  0.2533148422970604   T   T   T
  0.7916335800155562  0.9690904384372239  0.3581241860588318   T   T   T
  0.7926360000000017  0.5267589999999984  0.0406430000000029   F   F   F
  0.7926360000000017  0.7767589999999984  0.1468500000000006   F   F   F
  0.7916717479166816  0.5270116111305079  0.2538359334771757   T   T   T
  0.7915670284235408  0.7772357018236526  0.3582466728362478   T   T   T
  0.9593029999999985  0.8724270000000018  0.0812859999999986   F   F   F
  0.9593029999999985  0.6224270000000018  0.1874930000000035   F   F   F
  0.9586603967971352  0.8727790037448593  0.2946293139555746   T   T   T
  0.9577070790560530  0.6220640951178388  0.4002963010370325   T   T   T
  0.9593029999999985  0.8724270000000018  0.0000000000000000   F   F   F
  0.9593029999999985  0.6224270000000018  0.1062080000000023   F   F   F
  0.9589073924286352  0.8726247314632111  0.2127878965451406   T   T   T
  0.9582503756078976  0.6216299745674662  0.3194290202299641   T   T   T
  0.6235502129800945  0.3734082285390125  0.4246240660843812   T   T   T
  0.2889559988593194  0.8733266021798992  0.4223349451836869   T   T   T
  0.9597774837232794  0.8733191141159142  0.4221438596155909   T   T   T
  0.6250803566656099  0.8735647194500605  0.4224940452272857   T   T   T
 
  0.00000000E+00  0.00000000E+00  0.00000000E+00
  0.00000000E+00  0.00000000E+00  0.00000000E+00
  0.00000000E+00  0.00000000E+00  0.00000000E+00
  0.00000000E+00  0.00000000E+00  0.00000000E+00
  0.00000000E+00  0.00000000E+00  0.00000000E+00
  0.00000000E+00  0.00000000E+00  0.00000000E+00
  0.00000000E+00  0.00000000E+00  0.00000000E+00
  0.00000000E+00  0.00000000E+00  0.00000000E+00
  0.00000000E+00  0.00000000E+00  0.00000000E+00
  0.00000000E+00  0.00000000E+00  0.00000000E+00
  0.00000000E+00  0.00000000E+00  0.00000000E+00
  0.00000000E+00  0.00000000E+00  0.00000000E+00
  0.00000000E+00  0.00000000E+00  0.00000000E+00
  0.00000000E+00  0.00000000E+00  0.00000000E+00
  0.00000000E+00  0.00000000E+00  0.00000000E+00
  0.00000000E+00  0.00000000E+00  0.00000000E+00
  0.00000000E+00  0.00000000E+00  0.00000000E+00
  0.00000000E+00  0.00000000E+00  0.00000000E+00
  0.00000000E+00  0.00000000E+00  0.00000000E+00
  0.00000000E+00  0.00000000E+00  0.00000000E+00
  0.00000000E+00  0.00000000E+00  0.00000000E+00
  0.00000000E+00  0.00000000E+00  0.00000000E+00
  0.00000000E+00  0.00000000E+00  0.00000000E+00
  0.00000000E+00  0.00000000E+00  0.00000000E+00
  0.00000000E+00  0.00000000E+00  0.00000000E+00
  0.00000000E+00  0.00000000E+00  0.00000000E+00
  0.00000000E+00  0.00000000E+00  0.00000000E+00
  0.00000000E+00  0.00000000E+00  0.00000000E+00
  0.00000000E+00  0.00000000E+00  0.00000000E+00
  0.00000000E+00  0.00000000E+00  0.00000000E+00
  0.00000000E+00  0.00000000E+00  0.00000000E+00
  0.00000000E+00  0.00000000E+00  0.00000000E+00
  0.00000000E+00  0.00000000E+00  0.00000000E+00
  0.00000000E+00  0.00000000E+00  0.00000000E+00
  0.00000000E+00  0.00000000E+00  0.00000000E+00
  0.00000000E+00  0.00000000E+00  0.00000000E+00
  0.00000000E+00  0.00000000E+00  0.00000000E+00
  0.00000000E+00  0.00000000E+00  0.00000000E+00
  0.00000000E+00  0.00000000E+00  0.00000000E+00
  0.00000000E+00  0.00000000E+00  0.00000000E+00
  0.00000000E+00  0.00000000E+00  0.00000000E+00
  0.00000000E+00  0.00000000E+00  0.00000000E+00
  0.00000000E+00  0.00000000E+00  0.00000000E+00
  0.00000000E+00  0.00000000E+00  0.00000000E+00
  0.00000000E+00  0.00000000E+00  0.00000000E+00
  0.00000000E+00  0.00000000E+00  0.00000000E+00
  0.00000000E+00  0.00000000E+00  0.00000000E+00
  0.00000000E+00  0.00000000E+00  0.00000000E+00
  0.00000000E+00  0.00000000E+00  0.00000000E+00
  0.00000000E+00  0.00000000E+00  0.00000000E+00
  0.00000000E+00  0.00000000E+00  0.00000000E+00
  0.00000000E+00  0.00000000E+00  0.00000000E+00
  0.00000000E+00  0.00000000E+00  0.00000000E+00
  0.00000000E+00  0.00000000E+00  0.00000000E+00
  0.00000000E+00  0.00000000E+00  0.00000000E+00
  0.00000000E+00  0.00000000E+00  0.00000000E+00
  0.00000000E+00  0.00000000E+00  0.00000000E+00
  0.00000000E+00  0.00000000E+00  0.00000000E+00
  0.00000000E+00  0.00000000E+00  0.00000000E+00
  0.00000000E+00  0.00000000E+00  0.00000000E+00
  0.00000000E+00  0.00000000E+00  0.00000000E+00
  0.00000000E+00  0.00000000E+00  0.00000000E+00
  0.00000000E+00  0.00000000E+00  0.00000000E+00
  0.00000000E+00  0.00000000E+00  0.00000000E+00
  0.00000000E+00  0.00000000E+00  0.00000000E+00
  0.00000000E+00  0.00000000E+00  0.00000000E+00
  0.00000000E+00  0.00000000E+00  0.00000000E+00
  0.00000000E+00  0.00000000E+00  0.00000000E+00
  0.00000000E+00  0.00000000E+00  0.00000000E+00
  0.00000000E+00  0.00000000E+00  0.00000000E+00
  0.00000000E+00  0.00000000E+00  0.00000000E+00
  0.00000000E+00  0.00000000E+00  0.00000000E+00
  0.00000000E+00  0.00000000E+00  0.00000000E+00
  0.00000000E+00  0.00000000E+00  0.00000000E+00
  0.00000000E+00  0.00000000E+00  0.00000000E+00
  0.00000000E+00  0.00000000E+00  0.00000000E+00
  0.00000000E+00  0.00000000E+00  0.00000000E+00
  0.00000000E+00  0.00000000E+00  0.00000000E+00
  0.00000000E+00  0.00000000E+00  0.00000000E+00
  0.00000000E+00  0.00000000E+00  0.00000000E+00
  0.00000000E+00  0.00000000E+00  0.00000000E+00
  0.00000000E+00  0.00000000E+00  0.00000000E+00
  0.00000000E+00  0.00000000E+00  0.00000000E+00
  0.00000000E+00  0.00000000E+00  0.00000000E+00
  0.00000000E+00  0.00000000E+00  0.00000000E+00
  0.00000000E+00  0.00000000E+00  0.00000000E+00
  0.00000000E+00  0.00000000E+00  0.00000000E+00
  0.00000000E+00  0.00000000E+00  0.00000000E+00
  0.00000000E+00  0.00000000E+00  0.00000000E+00
  0.00000000E+00  0.00000000E+00  0.00000000E+00
  0.00000000E+00  0.00000000E+00  0.00000000E+00
  0.00000000E+00  0.00000000E+00  0.00000000E+00
  0.00000000E+00  0.00000000E+00  0.00000000E+00
  0.00000000E+00  0.00000000E+00  0.00000000E+00
  0.00000000E+00  0.00000000E+00  0.00000000E+00
  0.00000000E+00  0.00000000E+00  0.00000000E+00
  0.00000000E+00  0.00000000E+00  0.00000000E+00
  0.00000000E+00  0.00000000E+00  0.00000000E+00
  0.00000000E+00  0.00000000E+00  0.00000000E+00
  0.00000000E+00  0.00000000E+00  0.00000000E+00
  0.00000000E+00  0.00000000E+00  0.00000000E+00
  0.00000000E+00  0.00000000E+00  0.00000000E+00
  0.00000000E+00  0.00000000E+00  0.00000000E+00
  0.00000000E+00  0.00000000E+00  0.00000000E+00
  0.00000000E+00  0.00000000E+00  0.00000000E+00
  0.00000000E+00  0.00000000E+00  0.00000000E+00
  0.00000000E+00  0.00000000E+00  0.00000000E+00
  0.00000000E+00  0.00000000E+00  0.00000000E+00
  0.00000000E+00  0.00000000E+00  0.00000000E+00
  0.00000000E+00  0.00000000E+00  0.00000000E+00
  0.00000000E+00  0.00000000E+00  0.00000000E+00
  0.00000000E+00  0.00000000E+00  0.00000000E+00
  0.00000000E+00  0.00000000E+00  0.00000000E+00
  0.00000000E+00  0.00000000E+00  0.00000000E+00
  0.00000000E+00  0.00000000E+00  0.00000000E+00
  0.00000000E+00  0.00000000E+00  0.00000000E+00
  0.00000000E+00  0.00000000E+00  0.00000000E+00
  0.00000000E+00  0.00000000E+00  0.00000000E+00
  0.00000000E+00  0.00000000E+00  0.00000000E+00
  0.00000000E+00  0.00000000E+00  0.00000000E+00
  0.00000000E+00  0.00000000E+00  0.00000000E+00
  0.00000000E+00  0.00000000E+00  0.00000000E+00
  0.00000000E+00  0.00000000E+00  0.00000000E+00
  0.00000000E+00  0.00000000E+00  0.00000000E+00
  0.00000000E+00  0.00000000E+00  0.00000000E+00
  0.00000000E+00  0.00000000E+00  0.00000000E+00
  0.00000000E+00  0.00000000E+00  0.00000000E+00
  0.00000000E+00  0.00000000E+00  0.00000000E+00
  0.00000000E+00  0.00000000E+00  0.00000000E+00
  0.00000000E+00  0.00000000E+00  0.00000000E+00
  0.00000000E+00  0.00000000E+00  0.00000000E+00
  0.00000000E+00  0.00000000E+00  0.00000000E+00
  0.00000000E+00  0.00000000E+00  0.00000000E+00
  0.00000000E+00  0.00000000E+00  0.00000000E+00
  0.00000000E+00  0.00000000E+00  0.00000000E+00
  0.00000000E+00  0.00000000E+00  0.00000000E+00
  0.00000000E+00  0.00000000E+00  0.00000000E+00
  0.00000000E+00  0.00000000E+00  0.00000000E+00
  0.00000000E+00  0.00000000E+00  0.00000000E+00
  0.00000000E+00  0.00000000E+00  0.00000000E+00
  0.00000000E+00  0.00000000E+00  0.00000000E+00
  0.00000000E+00  0.00000000E+00  0.00000000E+00
  0.00000000E+00  0.00000000E+00  0.00000000E+00
  0.00000000E+00  0.00000000E+00  0.00000000E+00
  0.00000000E+00  0.00000000E+00  0.00000000E+00
  0.00000000E+00  0.00000000E+00  0.00000000E+00
  0.00000000E+00  0.00000000E+00  0.00000000E+00
  0.00000000E+00  0.00000000E+00  0.00000000E+00
