Ir  O  H                                
   1.00000000000000     
     9.5301187200000008    0.0000000000000000    0.0000000000000000
     0.0000000000000000   12.7429519599999992    0.0000000000000000
     0.0000000000000000    0.0000000000000000   29.9954083400000009
   Ir   O    H 
    48    98     1
Selective dynamics
Direct
  0.2926360299999970  0.1224274300000019  0.0406427899999997   F   F   F
  0.2926360299999970  0.3724274300000019  0.1468503199999986   F   F   F
  0.2928499482537177  0.1228042311057891  0.2538895711260452   T   T   T
  0.2934997601517253  0.3731805397257091  0.3579980727764820   T   T   T
  0.1259693700000000  0.3724274300000019  0.0406427899999997   F   F   F
  0.1259693700000000  0.1224274300000019  0.1468503199999986   F   F   F
  0.1260133662498788  0.3726742938491228  0.2533685835382684   T   T   T
  0.1264968665596342  0.1231583269254841  0.3612801286456460   T   T   T
  0.6259693700000000  0.1224274300000019  0.0406427899999997   F   F   F
  0.6259693700000000  0.3724274300000019  0.1468503199999986   F   F   F
  0.6261475356045523  0.1225222738526099  0.2539096061864754   T   T   T
  0.6276307563088110  0.3732523850596579  0.3611845806446610   T   T   T
  0.4593027000000021  0.3724274300000019  0.0406427899999997   F   F   F
  0.4593027000000021  0.1224274300000019  0.1468503199999986   F   F   F
  0.4606995550110753  0.3726639472173332  0.2536451500533445   T   T   T
  0.4597163392157810  0.1229654376646536  0.3612399960254535   T   T   T
  0.9593027000000021  0.1224274300000019  0.0406427899999997   F   F   F
  0.9593027000000021  0.3724274300000019  0.1468503199999986   F   F   F
  0.9594096086505459  0.1228053596683978  0.2539155249088125   T   T   T
  0.9607619638340523  0.3731940292537317  0.3581872203794632   T   T   T
  0.7926360299999970  0.3724274300000019  0.0406427899999997   F   F   F
  0.7926360299999970  0.1224274300000019  0.1468503199999986   F   F   F
  0.7914082309296546  0.3726848777269396  0.2537226990921226   T   T   T
  0.7932115668452724  0.1228826915013101  0.3613122026642017   T   T   T
  0.2926360299999970  0.6224274300000019  0.0406427899999997   F   F   F
  0.2926360299999970  0.8724274300000019  0.1468503199999986   F   F   F
  0.2928708314647679  0.6225704968566461  0.2538780186210730   T   T   T
  0.2930388657206251  0.8731753172262131  0.3585584521828906   T   T   T
  0.1259693700000000  0.8724274300000019  0.0406427899999997   F   F   F
  0.1259693700000000  0.6224274300000019  0.1468503199999986   F   F   F
  0.1261199940015487  0.8726842534179156  0.2536278642535095   T   T   T
  0.1265203339170853  0.6231841631897268  0.3612616806045637   T   T   T
  0.6259693700000000  0.6224274300000019  0.0406427899999997   F   F   F
  0.6259693700000000  0.8724274300000019  0.1468503199999986   F   F   F
  0.6261632879330818  0.6228748702706710  0.2538905927319277   T   T   T
  0.6264001142609672  0.8731847581946965  0.3586526025259360   T   T   T
  0.4593027000000021  0.8724274300000019  0.0406427899999997   F   F   F
  0.4593027000000021  0.6224274300000019  0.1468503199999986   F   F   F
  0.4594007458679741  0.8726795821335926  0.2536399051587352   T   T   T
  0.4597465610891049  0.6234127981948205  0.3612026120575251   T   T   T
  0.9593027000000021  0.6224274300000019  0.0406427899999997   F   F   F
  0.9593027000000021  0.8724274300000019  0.1468503199999986   F   F   F
  0.9594381616847301  0.6225818853290406  0.2539069473780415   T   T   T
  0.9598113588497625  0.8731787414385224  0.3585685825896192   T   T   T
  0.7926360299999970  0.8724274300000019  0.0406427899999997   F   F   F
  0.7926360299999970  0.6224274300000019  0.1468503199999986   F   F   F
  0.7928519168076491  0.8726723070711202  0.2536575049428009   T   T   T
  0.7932308659428458  0.6234747528182609  0.3612741307748735   T   T   T
  0.1259693700000000  0.2180957799999987  0.0406427899999997   F   F   F
  0.1259693700000000  0.4680957799999987  0.1468503199999986   F   F   F
  0.1261202921582836  0.2185673480153127  0.2535980862652778   T   T   T
  0.1269792182511651  0.4689430757871378  0.3604775855570992   T   T   T
  0.1259693700000000  0.0267590799999979  0.0406427899999997   F   F   F
  0.1259693700000000  0.2767590799999979  0.1468503199999986   F   F   F
  0.1261078896502781  0.0270325831069442  0.2538643280102235   T   T   T
  0.1269607590004540  0.2774146527228325  0.3606981789426413   T   T   T
  0.2926360299999970  0.3724274300000019  0.0812855900000002   F   F   F
  0.2926360299999970  0.1224274300000019  0.1874931099999984   F   F   F
  0.2932255959423458  0.3725056642658657  0.2941049757668281   T   T   T
  0.2933060302799646  0.1227707433350957  0.4009134064806474   T   T   T
  0.2926360299999970  0.3724274300000019  0.0000000000000000   F   F   F
  0.2926360299999970  0.1224274300000019  0.1062075199999981   F   F   F
  0.2929742629662897  0.3726686920086948  0.2126778102748403   T   T   T
  0.2930702290261209  0.1230947173793453  0.3195990730871259   T   T   T
  0.4593027000000021  0.2180957799999987  0.0406427899999997   F   F   F
  0.4593027000000021  0.4680957799999987  0.1468503199999986   F   F   F
  0.4597304319981816  0.2184279826901019  0.2535899193170152   T   T   T
  0.4591791784342831  0.4693034575120052  0.3602217855000589   T   T   T
  0.4593027000000021  0.0267590799999979  0.0406427899999997   F   F   F
  0.4593027000000021  0.2767590799999979  0.1468503199999986   F   F   F
  0.4594374648340889  0.0268954326093436  0.2538736006092819   T   T   T
  0.4592187575387356  0.2771260700745231  0.3605692587683649   T   T   T
  0.6259693700000000  0.3724274300000019  0.0812855900000002   F   F   F
  0.6259693700000000  0.1224274300000019  0.1874931099999984   F   F   F
  0.6259425131206910  0.3724515542859379  0.2949845225231371   T   T   T
  0.6263621654225489  0.1223314312821202  0.4008469452268812   T   T   T
  0.6259693700000000  0.3724274300000019  0.0000000000000000   F   F   F
  0.6259693700000000  0.1224274300000019  0.1062075199999981   F   F   F
  0.6261341394796105  0.3725827136637321  0.2126033140117372   T   T   T
  0.6264154731575715  0.1229274188874214  0.3195902862290438   T   T   T
  0.7926360299999970  0.2180957799999987  0.0406427899999997   F   F   F
  0.7926360299999970  0.4680957799999987  0.1468503199999986   F   F   F
  0.7924914227773954  0.2184140276621065  0.2536855952583394   T   T   T
  0.7943260760164037  0.4692497940676219  0.3605501452660036   T   T   T
  0.7926360299999970  0.0267590799999979  0.0406427899999997   F   F   F
  0.7926360299999970  0.2767590799999979  0.1468503199999986   F   F   F
  0.7928457693585145  0.0268797691927674  0.2539178579185588   T   T   T
  0.7943079617660800  0.2772014732299510  0.3609397990055854   T   T   T
  0.9593027000000021  0.3724274300000019  0.0812855900000002   F   F   F
  0.9593027000000021  0.1224274300000019  0.1874931099999984   F   F   F
  0.9589145841897206  0.3724110193488599  0.2941732366182208   T   T   T
  0.9598489696958410  0.1226209243645471  0.4009499252009832   T   T   T
  0.9593027000000021  0.3724274300000019  0.0000000000000000   F   F   F
  0.9593027000000021  0.1224274300000019  0.1062075199999981   F   F   F
  0.9589942142683938  0.3726410006171861  0.2127086432258167   T   T   T
  0.9596437158295572  0.1231112810102744  0.3196397578963612   T   T   T
  0.1259693700000000  0.7180957799999987  0.0406427899999997   F   F   F
  0.1259693700000000  0.9680957799999987  0.1468503199999986   F   F   F
  0.1261483920528264  0.7183203730845946  0.2537226670036006   T   T   T
  0.1264192257062788  0.9689081425048727  0.3609496377028947   T   T   T
  0.1259693700000000  0.5267590799999979  0.0406427899999997   F   F   F
  0.1259693700000000  0.7767590799999979  0.1468503199999986   F   F   F
  0.1261271274764511  0.5267755493553281  0.2537399841023174   T   T   T
  0.1264146202208138  0.7774299742463029  0.3611025561048180   T   T   T
  0.2926360299999970  0.8724274300000019  0.0812855900000002   F   F   F
  0.2926360299999970  0.6224274300000019  0.1874931099999984   F   F   F
  0.2928343829350553  0.8724506823036862  0.2945090708781279   T   T   T
  0.2933634240246619  0.6235218716537503  0.4008846796211998   T   T   T
  0.2926360299999970  0.8724274300000019  0.0000000000000000   F   F   F
  0.2926360299999970  0.6224274300000019  0.1062075199999981   F   F   F
  0.2927347288750184  0.8726935387991830  0.2126128572092085   T   T   T
  0.2930948504527038  0.6231615520403579  0.3195808007315435   T   T   T
  0.4593027000000021  0.7180957799999987  0.0406427899999997   F   F   F
  0.4593027000000021  0.9680957799999987  0.1468503199999986   F   F   F
  0.4594184269230510  0.7184534165494441  0.2537034742980850   T   T   T
  0.4597987788766957  0.9688695575926545  0.3608342178350838   T   T   T
  0.4593027000000021  0.5267590799999979  0.0406427899999997   F   F   F
  0.4593027000000021  0.7767590799999979  0.1468503199999986   F   F   F
  0.4597787253393477  0.5269131112294900  0.2537045404158391   T   T   T
  0.4598135642776384  0.7774861291131643  0.3609783262138038   T   T   T
  0.6259693700000000  0.8724274300000019  0.0812855900000002   F   F   F
  0.6259693700000000  0.6224274300000019  0.1874931099999984   F   F   F
  0.6261291311028572  0.8722200041952561  0.2945703848456134   T   T   T
  0.6263992722591567  0.6238509312629574  0.4008018220951612   T   T   T
  0.6259693700000000  0.8724274300000019  0.0000000000000000   F   F   F
  0.6259693700000000  0.6224274300000019  0.1062075199999981   F   F   F
  0.6261131222967720  0.8726255851265705  0.2126405467530290   T   T   T
  0.6264338974652190  0.6233534462069130  0.3195565857941389   T   T   T
  0.7926360299999970  0.7180957799999987  0.0406427899999997   F   F   F
  0.7926360299999970  0.9680957799999987  0.1468503199999986   F   F   F
  0.7928840097521643  0.7184698983450062  0.2537733936539084   T   T   T
  0.7930092119956882  0.9688394070995940  0.3608845207408322   T   T   T
  0.7926360299999970  0.5267590799999979  0.0406427899999997   F   F   F
  0.7926360299999970  0.7767590799999979  0.1468503199999986   F   F   F
  0.7925053089202621  0.5269556535886437  0.2537951973901400   T   T   T
  0.7930349667487278  0.7775135353383220  0.3610517236587967   T   T   T
  0.9593027000000021  0.8724274300000019  0.0812855900000002   F   F   F
  0.9593027000000021  0.6224274300000019  0.1874931099999984   F   F   F
  0.9595016586001961  0.8723210927670522  0.2945192362638664   T   T   T
  0.9598251269181475  0.6233879020161623  0.4009248795307769   T   T   T
  0.9593027000000021  0.8724274300000019  0.0000000000000000   F   F   F
  0.9593027000000021  0.6224274300000019  0.1062075199999981   F   F   F
  0.9594502591000236  0.8726405893704481  0.2126174768850788   T   T   T
  0.9596849752340404  0.6230972403911608  0.3196249988234143   T   T   T
  0.6191484144093948  0.3750874936434698  0.4254000689412791   T   T   T
  0.7525887494827472  0.3767718212290276  0.4456778091935973   T   T   T
  0.7269868629602030  0.3808419539229604  0.4775996147645785   T   T   T
 
  0.00000000E+00  0.00000000E+00  0.00000000E+00
  0.00000000E+00  0.00000000E+00  0.00000000E+00
  0.00000000E+00  0.00000000E+00  0.00000000E+00
  0.00000000E+00  0.00000000E+00  0.00000000E+00
  0.00000000E+00  0.00000000E+00  0.00000000E+00
  0.00000000E+00  0.00000000E+00  0.00000000E+00
  0.00000000E+00  0.00000000E+00  0.00000000E+00
  0.00000000E+00  0.00000000E+00  0.00000000E+00
  0.00000000E+00  0.00000000E+00  0.00000000E+00
  0.00000000E+00  0.00000000E+00  0.00000000E+00
  0.00000000E+00  0.00000000E+00  0.00000000E+00
  0.00000000E+00  0.00000000E+00  0.00000000E+00
  0.00000000E+00  0.00000000E+00  0.00000000E+00
  0.00000000E+00  0.00000000E+00  0.00000000E+00
  0.00000000E+00  0.00000000E+00  0.00000000E+00
  0.00000000E+00  0.00000000E+00  0.00000000E+00
  0.00000000E+00  0.00000000E+00  0.00000000E+00
  0.00000000E+00  0.00000000E+00  0.00000000E+00
  0.00000000E+00  0.00000000E+00  0.00000000E+00
  0.00000000E+00  0.00000000E+00  0.00000000E+00
  0.00000000E+00  0.00000000E+00  0.00000000E+00
  0.00000000E+00  0.00000000E+00  0.00000000E+00
  0.00000000E+00  0.00000000E+00  0.00000000E+00
  0.00000000E+00  0.00000000E+00  0.00000000E+00
  0.00000000E+00  0.00000000E+00  0.00000000E+00
  0.00000000E+00  0.00000000E+00  0.00000000E+00
  0.00000000E+00  0.00000000E+00  0.00000000E+00
  0.00000000E+00  0.00000000E+00  0.00000000E+00
  0.00000000E+00  0.00000000E+00  0.00000000E+00
  0.00000000E+00  0.00000000E+00  0.00000000E+00
  0.00000000E+00  0.00000000E+00  0.00000000E+00
  0.00000000E+00  0.00000000E+00  0.00000000E+00
  0.00000000E+00  0.00000000E+00  0.00000000E+00
  0.00000000E+00  0.00000000E+00  0.00000000E+00
  0.00000000E+00  0.00000000E+00  0.00000000E+00
  0.00000000E+00  0.00000000E+00  0.00000000E+00
  0.00000000E+00  0.00000000E+00  0.00000000E+00
  0.00000000E+00  0.00000000E+00  0.00000000E+00
  0.00000000E+00  0.00000000E+00  0.00000000E+00
  0.00000000E+00  0.00000000E+00  0.00000000E+00
  0.00000000E+00  0.00000000E+00  0.00000000E+00
  0.00000000E+00  0.00000000E+00  0.00000000E+00
  0.00000000E+00  0.00000000E+00  0.00000000E+00
  0.00000000E+00  0.00000000E+00  0.00000000E+00
  0.00000000E+00  0.00000000E+00  0.00000000E+00
  0.00000000E+00  0.00000000E+00  0.00000000E+00
  0.00000000E+00  0.00000000E+00  0.00000000E+00
  0.00000000E+00  0.00000000E+00  0.00000000E+00
  0.00000000E+00  0.00000000E+00  0.00000000E+00
  0.00000000E+00  0.00000000E+00  0.00000000E+00
  0.00000000E+00  0.00000000E+00  0.00000000E+00
  0.00000000E+00  0.00000000E+00  0.00000000E+00
  0.00000000E+00  0.00000000E+00  0.00000000E+00
  0.00000000E+00  0.00000000E+00  0.00000000E+00
  0.00000000E+00  0.00000000E+00  0.00000000E+00
  0.00000000E+00  0.00000000E+00  0.00000000E+00
  0.00000000E+00  0.00000000E+00  0.00000000E+00
  0.00000000E+00  0.00000000E+00  0.00000000E+00
  0.00000000E+00  0.00000000E+00  0.00000000E+00
  0.00000000E+00  0.00000000E+00  0.00000000E+00
  0.00000000E+00  0.00000000E+00  0.00000000E+00
  0.00000000E+00  0.00000000E+00  0.00000000E+00
  0.00000000E+00  0.00000000E+00  0.00000000E+00
  0.00000000E+00  0.00000000E+00  0.00000000E+00
  0.00000000E+00  0.00000000E+00  0.00000000E+00
  0.00000000E+00  0.00000000E+00  0.00000000E+00
  0.00000000E+00  0.00000000E+00  0.00000000E+00
  0.00000000E+00  0.00000000E+00  0.00000000E+00
  0.00000000E+00  0.00000000E+00  0.00000000E+00
  0.00000000E+00  0.00000000E+00  0.00000000E+00
  0.00000000E+00  0.00000000E+00  0.00000000E+00
  0.00000000E+00  0.00000000E+00  0.00000000E+00
  0.00000000E+00  0.00000000E+00  0.00000000E+00
  0.00000000E+00  0.00000000E+00  0.00000000E+00
  0.00000000E+00  0.00000000E+00  0.00000000E+00
  0.00000000E+00  0.00000000E+00  0.00000000E+00
  0.00000000E+00  0.00000000E+00  0.00000000E+00
  0.00000000E+00  0.00000000E+00  0.00000000E+00
  0.00000000E+00  0.00000000E+00  0.00000000E+00
  0.00000000E+00  0.00000000E+00  0.00000000E+00
  0.00000000E+00  0.00000000E+00  0.00000000E+00
  0.00000000E+00  0.00000000E+00  0.00000000E+00
  0.00000000E+00  0.00000000E+00  0.00000000E+00
  0.00000000E+00  0.00000000E+00  0.00000000E+00
  0.00000000E+00  0.00000000E+00  0.00000000E+00
  0.00000000E+00  0.00000000E+00  0.00000000E+00
  0.00000000E+00  0.00000000E+00  0.00000000E+00
  0.00000000E+00  0.00000000E+00  0.00000000E+00
  0.00000000E+00  0.00000000E+00  0.00000000E+00
  0.00000000E+00  0.00000000E+00  0.00000000E+00
  0.00000000E+00  0.00000000E+00  0.00000000E+00
  0.00000000E+00  0.00000000E+00  0.00000000E+00
  0.00000000E+00  0.00000000E+00  0.00000000E+00
  0.00000000E+00  0.00000000E+00  0.00000000E+00
  0.00000000E+00  0.00000000E+00  0.00000000E+00
  0.00000000E+00  0.00000000E+00  0.00000000E+00
  0.00000000E+00  0.00000000E+00  0.00000000E+00
  0.00000000E+00  0.00000000E+00  0.00000000E+00
  0.00000000E+00  0.00000000E+00  0.00000000E+00
  0.00000000E+00  0.00000000E+00  0.00000000E+00
  0.00000000E+00  0.00000000E+00  0.00000000E+00
  0.00000000E+00  0.00000000E+00  0.00000000E+00
  0.00000000E+00  0.00000000E+00  0.00000000E+00
  0.00000000E+00  0.00000000E+00  0.00000000E+00
  0.00000000E+00  0.00000000E+00  0.00000000E+00
  0.00000000E+00  0.00000000E+00  0.00000000E+00
  0.00000000E+00  0.00000000E+00  0.00000000E+00
  0.00000000E+00  0.00000000E+00  0.00000000E+00
  0.00000000E+00  0.00000000E+00  0.00000000E+00
  0.00000000E+00  0.00000000E+00  0.00000000E+00
  0.00000000E+00  0.00000000E+00  0.00000000E+00
  0.00000000E+00  0.00000000E+00  0.00000000E+00
  0.00000000E+00  0.00000000E+00  0.00000000E+00
  0.00000000E+00  0.00000000E+00  0.00000000E+00
  0.00000000E+00  0.00000000E+00  0.00000000E+00
  0.00000000E+00  0.00000000E+00  0.00000000E+00
  0.00000000E+00  0.00000000E+00  0.00000000E+00
  0.00000000E+00  0.00000000E+00  0.00000000E+00
  0.00000000E+00  0.00000000E+00  0.00000000E+00
  0.00000000E+00  0.00000000E+00  0.00000000E+00
  0.00000000E+00  0.00000000E+00  0.00000000E+00
  0.00000000E+00  0.00000000E+00  0.00000000E+00
  0.00000000E+00  0.00000000E+00  0.00000000E+00
  0.00000000E+00  0.00000000E+00  0.00000000E+00
  0.00000000E+00  0.00000000E+00  0.00000000E+00
  0.00000000E+00  0.00000000E+00  0.00000000E+00
  0.00000000E+00  0.00000000E+00  0.00000000E+00
  0.00000000E+00  0.00000000E+00  0.00000000E+00
  0.00000000E+00  0.00000000E+00  0.00000000E+00
  0.00000000E+00  0.00000000E+00  0.00000000E+00
  0.00000000E+00  0.00000000E+00  0.00000000E+00
  0.00000000E+00  0.00000000E+00  0.00000000E+00
  0.00000000E+00  0.00000000E+00  0.00000000E+00
  0.00000000E+00  0.00000000E+00  0.00000000E+00
  0.00000000E+00  0.00000000E+00  0.00000000E+00
  0.00000000E+00  0.00000000E+00  0.00000000E+00
  0.00000000E+00  0.00000000E+00  0.00000000E+00
  0.00000000E+00  0.00000000E+00  0.00000000E+00
  0.00000000E+00  0.00000000E+00  0.00000000E+00
  0.00000000E+00  0.00000000E+00  0.00000000E+00
  0.00000000E+00  0.00000000E+00  0.00000000E+00
  0.00000000E+00  0.00000000E+00  0.00000000E+00
  0.00000000E+00  0.00000000E+00  0.00000000E+00
  0.00000000E+00  0.00000000E+00  0.00000000E+00
  0.00000000E+00  0.00000000E+00  0.00000000E+00
  0.00000000E+00  0.00000000E+00  0.00000000E+00
  0.00000000E+00  0.00000000E+00  0.00000000E+00
