Ir  O  H 
 1.0000000000000000
     9.5301187200000008    0.0000000000000000    0.0000000000000000
     0.0000000000000000   12.7429519599999992    0.0000000000000000
     0.0000000000000000    0.0000000000000000   29.9954083400000009
 Ir  O   H  
  48  98   1
Selective dynamics
Cartesian
  2.7888561076494534  1.5600868590762871  1.2190970821268596   F   F   F
  2.7888561076494534  4.7458248490762864  4.4048353132596265   F   F   F
  2.7908947740038110  1.5648884174658442  7.6155213591931128   T   T   T
  2.7970875585374491  4.7554216901315627 10.7382983778637051   T   T   T
  1.2005030511836066  4.7458248490762864  1.2190970821268596   F   F   F
  1.2005030511836066  1.5600868590762871  4.4048353132596265   F   F   F
  1.2009223406682064  4.7489706232463398  7.5998941237576938   T   T   T
  1.2055301560213008  1.5694006434854169 10.8367449838537908   T   T   T
  5.9655624111836065  1.5600868590762871  1.2190970821268596   F   F   F
  5.9655624111836065  4.7458248490762864  4.4048353132596265   F   F   F
  5.9672603505467841  1.5612954497338143  7.6161223190119012   T   T   T
  5.9813956199463432  4.7563372117706173 10.8338789825482280   T   T   T
  4.3772092594165644  4.7458248490762864  1.2190970821268596   F   F   F
  4.3772092594165644  1.5600868590762871  4.4048353132596265   F   F   F
  4.3905214535067190  4.7488387766144271  7.6081898493105440   T   T   T
  4.3811512902501653  1.5669426649010774 10.8355411895233829   T   T   T
  9.1422686194165639  1.5600868590762871  1.2190970821268596   F   F   F
  9.1422686194165639  4.7458248490762864  4.4048353132596265   F   F   F
  9.1432874715484687  1.5649027986848698  7.6162998535053257   T   T   T
  9.1561755769988871  4.7555935865391188 10.7439719374515033   T   T   T
  7.5539154676494542  4.7458248490762864  1.2190970821268596   F   F   F
  7.5539154676494542  1.5600868590762871  4.4048353132596265   F   F   F
  7.5422143967448081  4.7491054930928529  7.6105159643952440   T   T   T
  7.5594004021126722  1.5658882345167042 10.8377070571376208   T   T   T
  2.7888561076494534  7.9315628390762862  1.2190970821268596   F   F   F
  2.7888561076494534 11.1173008290762869  4.4048353132596265   F   F   F
  2.7910937934843298  7.9333859331576040  7.6151748370891639   T   T   T
  2.7926951798917203 11.1268311200713619 10.7551071869841124   T   T   T
  1.2005030511836066 11.1173008290762869  1.2190970821268596   F   F   F
  1.2005030511836066  7.9315628390762862  4.4048353132596265   F   F   F
  1.2019385158004239 11.1205735175529572  7.6076713546862020   T   T   T
  1.2057538027238852  7.9412058537595023 10.8361916273285761   T   T   T
  5.9655624111836065  7.9315628390762862  1.2190970821268596   F   F   F
  5.9655624111836065 11.1173008290762869  4.4048353132596265   F   F   F
  5.9674104721077992  7.9372645489503864  7.6155520026788981   T   T   T
  5.9696674551286160 11.1269514258792341 10.7579312649691516   T   T   T
  4.3772092594165644 11.1173008290762869  1.2190970821268596   F   F   F
  4.3772092594165644  7.9315628390762862  4.4048353132596265   F   F   F
  4.3781436481783560 11.1205139916012747  7.6080325265552098   T   T   T
  4.3814393082909140  7.9441193386457769 10.8344198421400844   T   T   T
  9.1422686194165639  7.9315628390762862  1.2190970821268596   F   F   F
  9.1422686194165639 11.1173008290762869  4.4048353132596265   F   F   F
  9.1435595853540086  7.9335310559141572  7.6160425669672165   T   T   T
  9.1471161986427703 11.1268747546443745 10.7554110526706737   T   T   T
  7.5539154676494542 11.1173008290762869  1.2190970821268596   F   F   F
  7.5539154676494542  7.9315628390762862  4.4048353132596265   F   F   F
  7.5559728945564775 11.1204212858296305  7.6085604392648181   T   T   T
  7.5595843248037360  7.9449088234359717 10.8365650752708103   T   T   T
  1.2005030511836066  2.7791840472187124  1.2190970821268596   F   F   F
  1.2005030511836066  5.9649220372187113  4.4048353132596265   F   F   F
  1.2019413572695383  2.7851932157837545  7.6067781517694915   T   T   T
  1.2101270249063634  5.9757190867301269 10.8126723762023964   T   T   T
  1.2005030511836066  0.3409896709337700  1.2190970821268596   F   F   F
  1.2005030511836066  3.5267276609337697  4.4048353132596265   F   F   F
  1.2018231598958053  0.3444749078864714  7.6147641816262785   T   T   T
  1.2099511060556682  3.5350815926471788 10.8192891648788514   T   T   T
  2.7888561076494534  4.7458248490762864  2.4381944642078266   F   F   F
  2.7888561076494534  1.5600868590762871  5.6239323953864897   F   F   F
  2.7944747410733353  4.7468217845677776  8.8217988429519050   T   T   T
  2.7952412898599537  1.5644616844125789 12.0255613363673586   T   T   T
  2.7888561076494534  4.7458248490762864  0.0000000000000000   F   F   F
  2.7888561076494534  1.5600868590762871  3.1857379311786600   F   F   F
  2.7920795079732534  4.7488992392628120  6.3793577640508659   T   T   T
  2.7929940759165106  1.5685900700947488  9.5865047023337553   T   T   T
  4.3772092594165644  2.7791840472187124  1.2190970821268596   F   F   F
  4.3772092594165644  5.9649220372187113  4.4048353132596265   F   F   F
  4.3812855961395600  2.7834172901397185  7.6065331808215984   T   T   T
  4.3760320842307925  5.9803114137373639 10.8049995490382500   T   T   T
  4.3772092594165644  0.3409896709337700  1.2190970821268596   F   F   F
  4.3772092594165644  3.5267276609337697  4.4048353132596265   F   F   F
  4.3784935842846924  0.3427272056842757  7.6150423170214436   T   T   T
  4.3764092777950179  3.5314041978232127 10.8154221516082654   T   T   T
  5.9655624111836065  4.7458248490762864  2.4381944642078266   F   F   F
  5.9655624111836065  1.5600868590762871  5.6239323953864897   F   F   F
  5.9653064619353469  4.7461322636930188  8.8481812070613888   T   T   T
  5.9693057981931892  1.5588635520260630 12.0235678039218428   T   T   T
  5.9655624111836065  4.7458248490762864  0.0000000000000000   F   F   F
  5.9655624111836065  1.5600868590762871  3.1857379311786600   F   F   F
  5.9671326838857226  4.7478036213433930  6.3771232182193271   T   T   T
  5.9698138272366172  1.5664581934492356  9.5862411369376428   T   T   T
  7.5539154676494542  2.7791840472187124  1.2190970821268596   F   F   F
  7.5539154676494542  5.9649220372187113  4.4048353132596265   F   F   F
  7.5525373436502869  2.7832394618883587  7.6094030197497995   T   T   T
  7.5700218068280396  5.9796275830436310 10.8148488343001361   T   T   T
  7.5539154676494542  0.3409896709337700  1.2190970821268596   F   F   F
  7.5539154676494542  3.5267276609337697  4.4048353132596265   F   F   F
  7.5559143086364076  0.3425276075192851  7.6163698330852601   T   T   T
  7.5698491758719744  3.5323650566104812 10.8265366573300490   T   T   T
  9.1422686194165639  4.7458248490762864  2.4381944642078266   F   F   F
  9.1422686194165639  1.5600868590762871  5.6239323953864897   F   F   F
  9.1385698296674427  4.7456157289371941  8.8238463550629920   T   T   T
  9.1474746344710187  1.5625525484682143 12.0266567302959864   T   T   T
  9.1422686194165639  4.7458248490762864  0.0000000000000000   F   F   F
  9.1422686194165639  1.5600868590762871  3.1857379311786600   F   F   F
  9.1393287137709347  4.7485463691911232  6.3802826110056419   T   T   T
  9.1455185407576511  1.5688011396479669  9.5877250598000892   T   T   T
  1.2005030511836066  9.1506600272187129  1.2190970821268596   F   F   F
  1.2005030511836066 12.3363980172187127  4.4048353132596265   F   F   F
  1.2022091526005456  9.1535220061062681  7.6105150018869132   T   T   T
  1.2047902294713078 12.3467499135923902 10.8268317730734722   T   T   T
  1.2005030511836066  6.7124656509337699  1.2190970821268596   F   F   F
  1.2005030511836066  9.8982036409337706  4.4048353132596265   F   F   F
  1.2020064986631231  6.7126755191375365  7.6110344353340720   T   T   T
  1.2047463386480768  9.9067528140847063 10.8314186229818379   T   T   T
  2.7888561076494534 11.1173008290762869  2.4381944642078266   F   F   F
  2.7888561076494534  7.9315628390762862  5.6239323953864897   F   F   F
  2.7907464346690154 11.1175971320650682  8.8339198408234960   T   T   T
  2.7957882590607523  7.9455092564930467 12.0246996624879809   T   T   T
  2.7888561076494534 11.1173008290762869  0.0000000000000000   F   F   F
  2.7888561076494534  7.9315628390762862  3.1857379311786600   F   F   F
  2.7897967196459659 11.1206918407204096  6.3774094703242188   T   T   T
  2.7932287210348896  7.9409177209692823  9.5859566155668539   T   T   T
  4.3772092594165644  9.1506600272187129  1.2190970821268596   F   F   F
  4.3772092594165644 12.3363980172187127  4.4048353132596265   F   F   F
  4.3783121507323397  9.1552173725874404  7.6099393088476752   T   T   T
  4.3819369500059286 12.3462582279096793 10.8233697070078492   T   T   T
  4.3772092594165644  6.7124656509337699  1.2190970821268596   F   F   F
  4.3772092594165644  9.8982036409337706  4.4048353132596265   F   F   F
  4.3817458374142699  6.7144284634915241  7.6099712874851546   T   T   T
  4.3820778566322325  9.9074683928554244 10.8276922966728470   T   T   T
  5.9655624111836065 11.1173008290762869  2.4381944642078266   F   F   F
  5.9655624111836065  7.9315628390762862  5.6239323953864897   F   F   F
  5.9670849534606925 11.1146576120111824  8.8357589783150701   T   T   T
  5.9696594307513777  7.9497024472850892 12.0222143171604614   T   T   T
  5.9655624111836065 11.1173008290762869  0.0000000000000000   F   F   F
  5.9655624111836065  7.9315628390762862  3.1857379311786600   F   F   F
  5.9669323876381304 11.1198259103347965  6.3782400294979764   T   T   T
  5.9699894130758482  7.9433630191151634  9.5852302786313466   T   T   T
  7.5539154676494542  9.1506600272187129  1.2190970821268596   F   F   F
  7.5539154676494542 12.3363980172187127  4.4048353132596265   F   F   F
  7.5562787441277797  9.1554273993164905  7.6120365684765776   T   T   T
  7.5574719363725382 12.3458740216250522 10.8248785632064095   T   T   T
  7.5539154676494542  6.7124656509337699  1.2190970821268596   F   F   F
  7.5539154676494542  9.8982036409337706  4.4048353132596265   F   F   F
  7.5526696802403928  6.7149705787304503  7.6126905804480653   T   T   T
  7.5577173822266559  9.9078176290660238 10.8298938830065339   T   T   T
  9.1422686194165639 11.1173008290762869  2.4381944642078266   F   F   F
  9.1422686194165639  7.9315628390762862  5.6239323953864897   F   F   F
  9.1441647184968033 11.1159457788252585  8.8342247557196121   T   T   T
  9.1472474099690011  7.9438020878371391 12.0259054751909460   T   T   T
  9.1422686194165639 11.1173008290762869  0.0000000000000000   F   F   F
  9.1422686194165639  7.9315628390762862  3.1857379311786600   F   F   F
  9.1436748751580144 11.1200171086936681  6.3775480393883761   T   T   T
  9.1459117477806746  7.9400982007131526  9.5872823553802888   T   T   T
  5.9005578946213237  4.7797219122955150 12.7600487757578289   T   T   T
  7.1722601299069524  4.8011852178032255 13.3682878748385328   T   T   T
  6.9282711118911386  4.8530507231928519 14.3257954678902664   T   T   T
