Ru  O  H 
 1.0000000000000000
     9.3340239999999994    0.0000000000000000    0.0000000000000000
     0.0000000000000000   12.6784260000000000    0.0000000000000000
     0.0000000000000000    0.0000000000000000   29.9755059999999993
 Ru  O   H  
  48  98   1
Selective dynamics
Cartesian
  2.7314714472640156  4.7217881599020224  1.2333421943700060   F   F   F
  2.7314714472640156  1.5521816599020228  4.4029521988099249   F   F   F
  2.7330339276747901  4.7232245024296402  7.6074569866393995   T   T   T
  2.7337791478743072  1.5508287813721042 10.6743810099618450   T   T   T
  1.1757976692559795  1.5521816599020228  1.2333421943700060   F   F   F
  1.1757976692559795  4.7217881599020224  4.4029521988099249   F   F   F
  1.1756679509843551  1.5520226801792689  7.5730094436127287   T   T   T
  1.1764421167593537  4.7143508404032577 10.8805852544831936   T   T   T
  5.8428096692559786  4.7217881599020224  1.2333421943700060   F   F   F
  5.8428096692559786  1.5521816599020228  4.4029521988099249   F   F   F
  5.8433193151336811  4.7222670787829326  7.6079987176318715   T   T   T
  5.8438148767370111  1.5508636461829712 10.6698839579150864   T   T   T
  4.2871452252719857  1.5521816599020228  1.2333421943700060   F   F   F
  4.2871452252719857  4.7217881599020224  4.4029521988099249   F   F   F
  4.2869353440003950  1.5520439947331715  7.5718400283658225   T   T   T
  4.2815626591700147  4.7226569004121286 10.8672374170084254   T   T   T
  8.9541572252719845  4.7217881599020224  1.2333421943700060   F   F   F
  8.9541572252719845  1.5521816599020228  4.4029521988099249   F   F   F
  8.9539429516192985  4.7230281022868192  7.6076829930175531   T   T   T
  8.9521597330328238  1.5508343850447242 10.6742809801282075   T   T   T
  7.3984834472640149  1.5521816599020228  1.2333421943700060   F   F   F
  7.3984834472640149  4.7217881599020224  4.4029521988099249   F   F   F
  7.3988114758171166  1.5522925353755348  7.5719313820869312   T   T   T
  7.4040185617214966  4.7267891732132350 10.8636589167527600   T   T   T
  2.7314714472640156 11.0610011599020233  1.2333421943700060   F   F   F
  2.7314714472640156  7.8913946599020237  4.4029521988099249   F   F   F
  2.7330028392024968 11.0593068816280109  7.6075507767361517   T   T   T
  2.7173693688691603  7.8900865751947062 10.6462543965962535   T   T   T
  1.1757976692559795  7.8913946599020237  1.2333421943700060   F   F   F
  1.1757976692559795 11.0610011599020233  4.4029521988099249   F   F   F
  1.1780011652412794  7.8910898804627863  7.5546295922566982   T   T   T
  1.1766999140570888 11.0655453252212581 10.8808126309301230   T   T   T
  5.8428096692559786 11.0610011599020233  1.2333421943700060   F   F   F
  5.8428096692559786  7.8913946599020237  4.4029521988099249   F   F   F
  5.8433772943556361 11.0608429334536194  7.6080404813508684   T   T   T
  5.8291108717489175  7.8902039645399498 10.7992826129282573   T   T   T
  4.2871452252719857  7.8913946599020237  1.2333421943700060   F   F   F
  4.2871452252719857 11.0610011599020233  4.4029521988099249   F   F   F
  4.3037551033729313  7.8914964648855905  7.5808941552619533   T   T   T
  4.2814408520966083 11.0573008281909058 10.8674019872637864   T   T   T
  8.9541572252719845 11.0610011599020233  1.2333421943700060   F   F   F
  8.9541572252719845  7.8913946599020237  4.4029521988099249   F   F   F
  8.9540912279474849 11.0598926878117769  7.6077058303278715   T   T   T
  8.9564216869954745  7.8900171076925458 10.6434932831507378   T   T   T
  7.3984834472640149  7.8913946599020237  1.2333421943700060   F   F   F
  7.3984834472640149 11.0610011599020233  4.4029521988099249   F   F   F
  7.3859940456864193  7.8915630761941191  7.5777798612095744   T   T   T
  7.4042838979338041 11.0532190623972415 10.8631761151890789   T   T   T
  1.1757976692559795  5.9551327627560280  1.2333421943700060   F   F   F
  1.1757976692559795  2.7855262627560280  4.4029521988099249   F   F   F
  1.1762499371366184  5.9488682315443020  7.5893141919828739   T   T   T
  1.1758237536500582  2.7542294895843127 10.7940809856386313   T   T   T
  1.1757976692559795  3.4884562354739872  1.2333421943700060   F   F   F
  1.1757976692559795  0.3188497354739873  4.4029521988099249   F   F   F
  1.1765537957763978  3.4937741373762079  7.5908384695184852   T   T   T
  1.1757873439065289  0.3472254188340996 10.7928945461208485   T   T   T
  2.7314714472640156  1.5521816599020228  2.4666843887400121   F   F   F
  2.7314714472640156  4.7217881599020224  5.6362943931799308   F   F   F
  2.7317360085854268  1.5518237924277893  8.8057277410272885   T   T   T
  2.7267114315144005  4.7097741679732765 11.9841549858890524   T   T   T
  2.7314714472640156  1.5521816599020228  0.0000000000000000   F   F   F
  2.7314714472640156  4.7217881599020224  3.1696100044399187   F   F   F
  2.7308435879366351  1.5514127764711412  6.3434870883860528   T   T   T
  2.7317650779111173  4.7195771212286157  9.5572479482441715   T   T   T
  4.2871452252719857  5.9551327627560280  1.2333421943700060   F   F   F
  4.2871452252719857  2.7855262627560280  4.4029521988099249   F   F   F
  4.2904986860301406  5.9512695280476109  7.5961439721047421   T   T   T
  4.2885645748808203  2.7592521610807146 10.7916481587156916   T   T   T
  4.2871452252719857  3.4884562354739872  1.2333421943700060   F   F   F
  4.2871452252719857  0.3188497354739873  4.4029521988099249   F   F   F
  4.2872438809088393  3.4938074175920391  7.5945676432661324   T   T   T
  4.2887113175607183  0.3424473862860133 10.7909658488293836   T   T   T
  5.8428096692559786  1.5521816599020228  2.4666843887400121   F   F   F
  5.8428096692559786  4.7217881599020224  5.6362943931799308   F   F   F
  5.8427828632969447  1.5522574259032040  8.8037311929743645   T   T   T
  5.8434495488671931  4.7286828746017946 11.9538601982955459   T   T   T
  5.8428096692559786  1.5521816599020228  0.0000000000000000   F   F   F
  5.8428096692559786  4.7217881599020224  3.1696100044399187   F   F   F
  5.8428608495780674  1.5519641754882860  6.3427334882879780   T   T   T
  5.8413242261208707  4.7203437764759499  9.5586924233654500   T   T   T
  7.3984834472640149  5.9551327627560280  1.2333421943700060   F   F   F
  7.3984834472640149  2.7855262627560280  4.4029521988099249   F   F   F
  7.3968476379481354  5.9513884099310275  7.5961506799184022   T   T   T
  7.3981960428668874  2.7600899239177856 10.7916268754996167   T   T   T
  7.3984834472640149  3.4884562354739872  1.2333421943700060   F   F   F
  7.3984834472640149  0.3188497354739873  4.4029521988099249   F   F   F
  7.3996669779378035  3.4939512617477360  7.5942382830016362   T   T   T
  7.3982281427214343  0.3412399388396876 10.7899654819693556   T   T   T
  8.9541572252719845  1.5521816599020228  2.4666843887400121   F   F   F
  8.9541572252719845  4.7217881599020224  5.6362943931799308   F   F   F
  8.9547176991418720  1.5523743086039463  8.8052861228913244   T   T   T
  8.9590133630124011  4.7105539048642742 11.9809380371555996   T   T   T
  8.9541572252719845  1.5521816599020228  0.0000000000000000   F   F   F
  8.9541572252719845  4.7217881599020224  3.1696100044399187   F   F   F
  8.9548697266758364  1.5518736075257364  6.3431154812334434   T   T   T
  8.9551760332684935  4.7183629077299205  9.5567277886670059   T   T   T
  1.1757976692559795 12.2943457627560271  1.2333421943700060   F   F   F
  1.1757976692559795  9.1247392627560284  4.4029521988099249   F   F   F
  1.1765343932994183 12.2890269092415387  7.5913024980770789   T   T   T
  1.1703257455017584  9.1023136828027607 10.7809624481703992   T   T   T
  1.1757976692559795  9.8276692354739872  1.2333421943700060   F   F   F
  1.1757976692559795  6.6580627354739867  4.4029521988099249   F   F   F
  1.1762543102286667  9.8336843124006847  7.5888603562038135   T   T   T
  1.1700899471273409  6.6776688844222498 10.7803128365861074   T   T   T
  2.7314714472640156  7.8913946599020237  2.4666843887400121   F   F   F
  2.7314714472640156 11.0610011599020233  5.6362943931799308   F   F   F
  2.7385278686902432  7.8907345364971961  8.7839481230339533   T   T   T
  2.7266049117013047 11.0697045460793593 11.9849465513969662   T   T   T
  2.7314714472640156  7.8913946599020237  0.0000000000000000   F   F   F
  2.7314714472640156 11.0610011599020233  3.1696100044399187   F   F   F
  2.7375845781681400  7.8908941382044340  6.3392269693912375   T   T   T
  2.7317633831792940 11.0599877078373314  9.5572783900881593   T   T   T
  4.2871452252719857 12.2943457627560271  1.2333421943700060   F   F   F
  4.2871452252719857  9.1247392627560284  4.4029521988099249   F   F   F
  4.2873485536653604 12.2891007785480326  7.5948595896732787   T   T   T
  4.2632852561653811  9.0999994172175107 10.7955409475652679   T   T   T
  4.2871452252719857  9.8276692354739872  1.2333421943700060   F   F   F
  4.2871452252719857  6.6580627354739867  4.4029521988099249   F   F   F
  4.2902914762372664  9.8317771447336071  7.5960460815277457   T   T   T
  4.2633038473492189  6.6803423778533988 10.7956780385704754   T   T   T
  5.8428096692559786  7.8913946599020237  2.4666843887400121   F   F   F
  5.8428096692559786 11.0610011599020233  5.6362943931799308   F   F   F
  5.8448859943729934  7.8914384342725965  8.8516085369999686   T   T   T
  5.8435706895528812 11.0516274329174546 11.9533138876016771   T   T   T
  5.8428096692559786  7.8913946599020237  0.0000000000000000   F   F   F
  5.8428096692559786 11.0610011599020233  3.1696100044399187   F   F   F
  5.8438843491978858  7.8913994862634285  6.3436717579266819   T   T   T
  5.8412976414121367 11.0599574791588484  9.5586958482097106   T   T   T
  7.3984834472640149 12.2943457627560271  1.2333421943700060   F   F   F
  7.3984834472640149  9.1247392627560284  4.4029521988099249   F   F   F
  7.3997781739741315 12.2892517759446402  7.5956087340473628   T   T   T
  7.4180153582492663  9.1022373740066982 10.7825176538519525   T   T   T
  7.3984834472640149  9.8276692354739872  1.2333421943700060   F   F   F
  7.3984834472640149  6.6580627354739867  4.4029521988099249   F   F   F
  7.3970684326839899  9.8319853154606243  7.5949716320378577   T   T   T
  7.4171775914060971  6.6779241960487896 10.7820272484149022   T   T   T
  8.9541572252719845  7.8913946599020237  2.4666843887400121   F   F   F
  8.9541572252719845 11.0610011599020233  5.6362943931799308   F   F   F
  8.9504351666927597  7.8909415804625729  8.7826142540672585   T   T   T
  8.9592649931113346 11.0699537298474571 11.9808356189196648   T   T   T
  8.9541572252719845  7.8913946599020237  0.0000000000000000   F   F   F
  8.9541572252719845 11.0610011599020233  3.1696100044399187   F   F   F
  8.9522586257383399  7.8910194172828803  6.3380609281663700   T   T   T
  8.9554371992781601 11.0618529337342597  9.5567035183835021   T   T   T
  5.9004291285207460  7.8952186606087871 12.6985020671245383   T   T   T
  4.6566491980113973  7.8938636968811648 13.3549798082027671   T   T   T
  4.9335637408095252  7.9118207198664550 14.3034915532531333   T   T   T
