Ir  O  H                                
   1.00000000000000     
     9.5301187200000008    0.0000000000000000    0.0000000000000000
     0.0000000000000000   12.7429519599999992    0.0000000000000000
     0.0000000000000000    0.0000000000000000   29.9954083400000009
   Ir   O    H 
    48    98     1
Selective dynamics
Direct
  0.2926360299999970  0.1224274300000019  0.0406427899999997   F   F   F
  0.2926360299999970  0.3724274300000019  0.1468503199999986   F   F   F
  0.2926234630302957  0.1228521784293406  0.2539191075115497   T   T   T
  0.2931337404986394  0.3732302145228061  0.3580428528722592   T   T   T
  0.1259693700000000  0.3724274300000019  0.0406427899999997   F   F   F
  0.1259693700000000  0.1224274300000019  0.1468503199999986   F   F   F
  0.1257706219251205  0.3727175950698296  0.2532752568593537   T   T   T
  0.1260295782285397  0.1232737017239103  0.3613245477814999   T   T   T
  0.6259693700000000  0.1224274300000019  0.0406427899999997   F   F   F
  0.6259693700000000  0.3724274300000019  0.1468503199999986   F   F   F
  0.6259013473895365  0.1225164812285371  0.2539108912834891   T   T   T
  0.6274061908035478  0.3731930818799540  0.3611675504108618   T   T   T
  0.4593027000000021  0.3724274300000019  0.0406427899999997   F   F   F
  0.4593027000000021  0.1224274300000019  0.1468503199999986   F   F   F
  0.4604455380801085  0.3727953799954804  0.2536226467900278   T   T   T
  0.4593138548339724  0.1230128856856396  0.3612473552246627   T   T   T
  0.9593027000000021  0.1224274300000019  0.0406427899999997   F   F   F
  0.9593027000000021  0.3724274300000019  0.1468503199999986   F   F   F
  0.9592220105808025  0.1228139334641938  0.2539212187395847   T   T   T
  0.9598528604213712  0.3732302922422051  0.3581343656192573   T   T   T
  0.7926360299999970  0.3724274300000019  0.0406427899999997   F   F   F
  0.7926360299999970  0.1224274300000019  0.1468503199999986   F   F   F
  0.7910163572295161  0.3726849615100107  0.2537006506725632   T   T   T
  0.7927540649487881  0.1229000690369730  0.3612392801914268   T   T   T
  0.2926360299999970  0.6224274300000019  0.0406427899999997   F   F   F
  0.2926360299999970  0.8724274300000019  0.1468503199999986   F   F   F
  0.2925608402797479  0.6226492146248788  0.2539266318877225   T   T   T
  0.2924825831486473  0.8732251088116740  0.3585136067156967   T   T   T
  0.1259693700000000  0.8724274300000019  0.0406427899999997   F   F   F
  0.1259693700000000  0.6224274300000019  0.1468503199999986   F   F   F
  0.1258694349688199  0.8727308717984386  0.2535520653477263   T   T   T
  0.1259720727701890  0.6231708851490581  0.3613342625588274   T   T   T
  0.6259693700000000  0.6224274300000019  0.0406427899999997   F   F   F
  0.6259693700000000  0.8724274300000019  0.1468503199999986   F   F   F
  0.6258707576368323  0.6229609413835462  0.2539048867125331   T   T   T
  0.6258799225548373  0.8732052184145687  0.3586134297429098   T   T   T
  0.4593027000000021  0.8724274300000019  0.0406427899999997   F   F   F
  0.4593027000000021  0.6224274300000019  0.1468503199999986   F   F   F
  0.4591563140303236  0.8727431242666128  0.2535531698976143   T   T   T
  0.4592355960936203  0.6234213394578916  0.3612622875576932   T   T   T
  0.9593027000000021  0.6224274300000019  0.0406427899999997   F   F   F
  0.9593027000000021  0.8724274300000019  0.1468503199999986   F   F   F
  0.9591790961388895  0.6226269501625410  0.2539234147852127   T   T   T
  0.9593583743252694  0.8732086596311035  0.3585339156599190   T   T   T
  0.7926360299999970  0.8724274300000019  0.0406427899999997   F   F   F
  0.7926360299999970  0.6224274300000019  0.1468503199999986   F   F   F
  0.7926176911491893  0.8727056264867343  0.2535649698609177   T   T   T
  0.7926615016994631  0.6234671278348998  0.3612343354632799   T   T   T
  0.1259693700000000  0.2180957799999987  0.0406427899999997   F   F   F
  0.1259693700000000  0.4680957799999987  0.1468503199999986   F   F   F
  0.1259099065183094  0.2185864342359096  0.2535980331218752   T   T   T
  0.1263033761554411  0.4687176653192111  0.3612594308957711   T   T   T
  0.1259693700000000  0.0267590799999979  0.0406427899999997   F   F   F
  0.1259693700000000  0.2767590799999979  0.1468503199999986   F   F   F
  0.1259147525461159  0.0270775277585500  0.2539182925191810   T   T   T
  0.1263769232099392  0.2776969418657060  0.3613994754118721   T   T   T
  0.2926360299999970  0.3724274300000019  0.0812855900000002   F   F   F
  0.2926360299999970  0.1224274300000019  0.1874931099999984   F   F   F
  0.2928105793083944  0.3724613177178142  0.2940070673008464   T   T   T
  0.2928960035281989  0.1229703136373672  0.4012138458900765   T   T   T
  0.2926360299999970  0.3724274300000019  0.0000000000000000   F   F   F
  0.2926360299999970  0.1224274300000019  0.1062075199999981   F   F   F
  0.2929238187400429  0.3727705857766068  0.2126278388371787   T   T   T
  0.2926020630058872  0.1232394542422028  0.3196703994158554   T   T   T
  0.4593027000000021  0.2180957799999987  0.0406427899999997   F   F   F
  0.4593027000000021  0.4680957799999987  0.1468503199999986   F   F   F
  0.4595035832789733  0.2184594728810083  0.2535984944904754   T   T   T
  0.4586934900659543  0.4692132430995457  0.3609035949609662   T   T   T
  0.4593027000000021  0.0267590799999979  0.0406427899999997   F   F   F
  0.4593027000000021  0.2767590799999979  0.1468503199999986   F   F   F
  0.4591673321352729  0.0269417244479015  0.2539190991578835   T   T   T
  0.4589919214197948  0.2773108968282472  0.3609892407948934   T   T   T
  0.6259693700000000  0.3724274300000019  0.0812855900000002   F   F   F
  0.6259693700000000  0.1224274300000019  0.1874931099999984   F   F   F
  0.6253966026988067  0.3723689131078700  0.2949591348832072   T   T   T
  0.6260690265289028  0.1217569683623694  0.4010451772311043   T   T   T
  0.6259693700000000  0.3724274300000019  0.0000000000000000   F   F   F
  0.6259693700000000  0.1224274300000019  0.1062075199999981   F   F   F
  0.6258890519401419  0.3727064837382059  0.2125413391066502   T   T   T
  0.6259167741299621  0.1228106683283485  0.3196118924620492   T   T   T
  0.7926360299999970  0.2180957799999987  0.0406427899999997   F   F   F
  0.7926360299999970  0.4680957799999987  0.1468503199999986   F   F   F
  0.7922449686105821  0.2183615541665205  0.2536564112512423   T   T   T
  0.7936311983707895  0.4692504050954653  0.3604706147824430   T   T   T
  0.7926360299999970  0.0267590799999979  0.0406427899999997   F   F   F
  0.7926360299999970  0.2767590799999979  0.1468503199999986   F   F   F
  0.7926339133399836  0.0268981656211906  0.2539527981954848   T   T   T
  0.7938863851694293  0.2770853062658460  0.3607376902420043   T   T   T
  0.9593027000000021  0.3724274300000019  0.0812855900000002   F   F   F
  0.9593027000000021  0.1224274300000019  0.1874931099999984   F   F   F
  0.9588642469910624  0.3721015471220568  0.2939801810662743   T   T   T
  0.9591744977747112  0.1227528014284189  0.4012039352481338   T   T   T
  0.9593027000000021  0.3724274300000019  0.0000000000000000   F   F   F
  0.9593027000000021  0.1224274300000019  0.1062075199999981   F   F   F
  0.9585649775664393  0.3727237376571750  0.2126565689828013   T   T   T
  0.9593977214667859  0.1230543739950321  0.3196687925735233   T   T   T
  0.1259693700000000  0.7180957799999987  0.0406427899999997   F   F   F
  0.1259693700000000  0.9680957799999987  0.1468503199999986   F   F   F
  0.1258543913441272  0.7183638169447164  0.2537730794865993   T   T   T
  0.1259324419272261  0.9688526481799258  0.3616159340209535   T   T   T
  0.1259693700000000  0.5267590799999979  0.0406427899999997   F   F   F
  0.1259693700000000  0.7767590799999979  0.1468503199999986   F   F   F
  0.1258362969097391  0.5268365943307174  0.2537790318808035   T   T   T
  0.1259084671724366  0.7775739427843860  0.3617771596392245   T   T   T
  0.2926360299999970  0.8724274300000019  0.0812855900000002   F   F   F
  0.2926360299999970  0.6224274300000019  0.1874931099999984   F   F   F
  0.2925417173934051  0.8723592669486990  0.2943577454526292   T   T   T
  0.2928398647797934  0.6234079749301245  0.4012345011602889   T   T   T
  0.2926360299999970  0.8724274300000019  0.0000000000000000   F   F   F
  0.2926360299999970  0.6224274300000019  0.1062075199999981   F   F   F
  0.2925305873436557  0.8727422824351407  0.2125359928091655   T   T   T
  0.2925332941983569  0.6230782317678276  0.3196812130479785   T   T   T
  0.4593027000000021  0.7180957799999987  0.0406427899999997   F   F   F
  0.4593027000000021  0.9680957799999987  0.1468503199999986   F   F   F
  0.4591437932191340  0.7185181999849632  0.2537528921766352   T   T   T
  0.4592417042201333  0.9687735081469597  0.3614133656607166   T   T   T
  0.4593027000000021  0.5267590799999979  0.0406427899999997   F   F   F
  0.4593027000000021  0.7767590799999979  0.1468503199999986   F   F   F
  0.4594497969721871  0.5270521072053143  0.2537450290664651   T   T   T
  0.4592161601542486  0.7776401862149243  0.3615275020752478   T   T   T
  0.6259693700000000  0.8724274300000019  0.0812855900000002   F   F   F
  0.6259693700000000  0.6224274300000019  0.1874931099999984   F   F   F
  0.6258635321353836  0.8722572709779755  0.2944123594928385   T   T   T
  0.6259757477043877  0.6247931171462255  0.4010411245732470   T   T   T
  0.6259693700000000  0.8724274300000019  0.0000000000000000   F   F   F
  0.6259693700000000  0.6224274300000019  0.1062075199999981   F   F   F
  0.6259233113521319  0.8726882391404089  0.2125542894416270   T   T   T
  0.6257883215654871  0.6234213099202108  0.3196035030436803   T   T   T
  0.7926360299999970  0.7180957799999987  0.0406427899999997   F   F   F
  0.7926360299999970  0.9680957799999987  0.1468503199999986   F   F   F
  0.7926312986053077  0.7185111371473383  0.2537848645165539   T   T   T
  0.7925568037188455  0.9687335032862947  0.3614590159021844   T   T   T
  0.7926360299999970  0.5267590799999979  0.0406427899999997   F   F   F
  0.7926360299999970  0.7767590799999979  0.1468503199999986   F   F   F
  0.7921954257377877  0.5270301948539995  0.2538197679213923   T   T   T
  0.7925796441328359  0.7776483341644465  0.3616267549542513   T   T   T
  0.9593027000000021  0.8724274300000019  0.0812855900000002   F   F   F
  0.9593027000000021  0.6224274300000019  0.1874931099999984   F   F   F
  0.9591988897981452  0.8723418908291904  0.2943712921753701   T   T   T
  0.9590760040610462  0.6232212365429390  0.4012145132571590   T   T   T
  0.9593027000000021  0.8724274300000019  0.0000000000000000   F   F   F
  0.9593027000000021  0.6224274300000019  0.1062075199999981   F   F   F
  0.9592583436494024  0.8727050964689340  0.2125367064917896   T   T   T
  0.9593363447441874  0.6230980468877050  0.3196726514624615   T   T   T
  0.6215065240080619  0.3762912359984156  0.4255712742816797   T   T   T
  0.7584075802200942  0.3706541202149580  0.4451031695846126   T   T   T
  0.7369669573033093  0.3907845520322084  0.4760793637184975   T   T   T
 
  0.00000000E+00  0.00000000E+00  0.00000000E+00
  0.00000000E+00  0.00000000E+00  0.00000000E+00
  0.00000000E+00  0.00000000E+00  0.00000000E+00
  0.00000000E+00  0.00000000E+00  0.00000000E+00
  0.00000000E+00  0.00000000E+00  0.00000000E+00
  0.00000000E+00  0.00000000E+00  0.00000000E+00
  0.00000000E+00  0.00000000E+00  0.00000000E+00
  0.00000000E+00  0.00000000E+00  0.00000000E+00
  0.00000000E+00  0.00000000E+00  0.00000000E+00
  0.00000000E+00  0.00000000E+00  0.00000000E+00
  0.00000000E+00  0.00000000E+00  0.00000000E+00
  0.00000000E+00  0.00000000E+00  0.00000000E+00
  0.00000000E+00  0.00000000E+00  0.00000000E+00
  0.00000000E+00  0.00000000E+00  0.00000000E+00
  0.00000000E+00  0.00000000E+00  0.00000000E+00
  0.00000000E+00  0.00000000E+00  0.00000000E+00
  0.00000000E+00  0.00000000E+00  0.00000000E+00
  0.00000000E+00  0.00000000E+00  0.00000000E+00
  0.00000000E+00  0.00000000E+00  0.00000000E+00
  0.00000000E+00  0.00000000E+00  0.00000000E+00
  0.00000000E+00  0.00000000E+00  0.00000000E+00
  0.00000000E+00  0.00000000E+00  0.00000000E+00
  0.00000000E+00  0.00000000E+00  0.00000000E+00
  0.00000000E+00  0.00000000E+00  0.00000000E+00
  0.00000000E+00  0.00000000E+00  0.00000000E+00
  0.00000000E+00  0.00000000E+00  0.00000000E+00
  0.00000000E+00  0.00000000E+00  0.00000000E+00
  0.00000000E+00  0.00000000E+00  0.00000000E+00
  0.00000000E+00  0.00000000E+00  0.00000000E+00
  0.00000000E+00  0.00000000E+00  0.00000000E+00
  0.00000000E+00  0.00000000E+00  0.00000000E+00
  0.00000000E+00  0.00000000E+00  0.00000000E+00
  0.00000000E+00  0.00000000E+00  0.00000000E+00
  0.00000000E+00  0.00000000E+00  0.00000000E+00
  0.00000000E+00  0.00000000E+00  0.00000000E+00
  0.00000000E+00  0.00000000E+00  0.00000000E+00
  0.00000000E+00  0.00000000E+00  0.00000000E+00
  0.00000000E+00  0.00000000E+00  0.00000000E+00
  0.00000000E+00  0.00000000E+00  0.00000000E+00
  0.00000000E+00  0.00000000E+00  0.00000000E+00
  0.00000000E+00  0.00000000E+00  0.00000000E+00
  0.00000000E+00  0.00000000E+00  0.00000000E+00
  0.00000000E+00  0.00000000E+00  0.00000000E+00
  0.00000000E+00  0.00000000E+00  0.00000000E+00
  0.00000000E+00  0.00000000E+00  0.00000000E+00
  0.00000000E+00  0.00000000E+00  0.00000000E+00
  0.00000000E+00  0.00000000E+00  0.00000000E+00
  0.00000000E+00  0.00000000E+00  0.00000000E+00
  0.00000000E+00  0.00000000E+00  0.00000000E+00
  0.00000000E+00  0.00000000E+00  0.00000000E+00
  0.00000000E+00  0.00000000E+00  0.00000000E+00
  0.00000000E+00  0.00000000E+00  0.00000000E+00
  0.00000000E+00  0.00000000E+00  0.00000000E+00
  0.00000000E+00  0.00000000E+00  0.00000000E+00
  0.00000000E+00  0.00000000E+00  0.00000000E+00
  0.00000000E+00  0.00000000E+00  0.00000000E+00
  0.00000000E+00  0.00000000E+00  0.00000000E+00
  0.00000000E+00  0.00000000E+00  0.00000000E+00
  0.00000000E+00  0.00000000E+00  0.00000000E+00
  0.00000000E+00  0.00000000E+00  0.00000000E+00
  0.00000000E+00  0.00000000E+00  0.00000000E+00
  0.00000000E+00  0.00000000E+00  0.00000000E+00
  0.00000000E+00  0.00000000E+00  0.00000000E+00
  0.00000000E+00  0.00000000E+00  0.00000000E+00
  0.00000000E+00  0.00000000E+00  0.00000000E+00
  0.00000000E+00  0.00000000E+00  0.00000000E+00
  0.00000000E+00  0.00000000E+00  0.00000000E+00
  0.00000000E+00  0.00000000E+00  0.00000000E+00
  0.00000000E+00  0.00000000E+00  0.00000000E+00
  0.00000000E+00  0.00000000E+00  0.00000000E+00
  0.00000000E+00  0.00000000E+00  0.00000000E+00
  0.00000000E+00  0.00000000E+00  0.00000000E+00
  0.00000000E+00  0.00000000E+00  0.00000000E+00
  0.00000000E+00  0.00000000E+00  0.00000000E+00
  0.00000000E+00  0.00000000E+00  0.00000000E+00
  0.00000000E+00  0.00000000E+00  0.00000000E+00
  0.00000000E+00  0.00000000E+00  0.00000000E+00
  0.00000000E+00  0.00000000E+00  0.00000000E+00
  0.00000000E+00  0.00000000E+00  0.00000000E+00
  0.00000000E+00  0.00000000E+00  0.00000000E+00
  0.00000000E+00  0.00000000E+00  0.00000000E+00
  0.00000000E+00  0.00000000E+00  0.00000000E+00
  0.00000000E+00  0.00000000E+00  0.00000000E+00
  0.00000000E+00  0.00000000E+00  0.00000000E+00
  0.00000000E+00  0.00000000E+00  0.00000000E+00
  0.00000000E+00  0.00000000E+00  0.00000000E+00
  0.00000000E+00  0.00000000E+00  0.00000000E+00
  0.00000000E+00  0.00000000E+00  0.00000000E+00
  0.00000000E+00  0.00000000E+00  0.00000000E+00
  0.00000000E+00  0.00000000E+00  0.00000000E+00
  0.00000000E+00  0.00000000E+00  0.00000000E+00
  0.00000000E+00  0.00000000E+00  0.00000000E+00
  0.00000000E+00  0.00000000E+00  0.00000000E+00
  0.00000000E+00  0.00000000E+00  0.00000000E+00
  0.00000000E+00  0.00000000E+00  0.00000000E+00
  0.00000000E+00  0.00000000E+00  0.00000000E+00
  0.00000000E+00  0.00000000E+00  0.00000000E+00
  0.00000000E+00  0.00000000E+00  0.00000000E+00
  0.00000000E+00  0.00000000E+00  0.00000000E+00
  0.00000000E+00  0.00000000E+00  0.00000000E+00
  0.00000000E+00  0.00000000E+00  0.00000000E+00
  0.00000000E+00  0.00000000E+00  0.00000000E+00
  0.00000000E+00  0.00000000E+00  0.00000000E+00
  0.00000000E+00  0.00000000E+00  0.00000000E+00
  0.00000000E+00  0.00000000E+00  0.00000000E+00
  0.00000000E+00  0.00000000E+00  0.00000000E+00
  0.00000000E+00  0.00000000E+00  0.00000000E+00
  0.00000000E+00  0.00000000E+00  0.00000000E+00
  0.00000000E+00  0.00000000E+00  0.00000000E+00
  0.00000000E+00  0.00000000E+00  0.00000000E+00
  0.00000000E+00  0.00000000E+00  0.00000000E+00
  0.00000000E+00  0.00000000E+00  0.00000000E+00
  0.00000000E+00  0.00000000E+00  0.00000000E+00
  0.00000000E+00  0.00000000E+00  0.00000000E+00
  0.00000000E+00  0.00000000E+00  0.00000000E+00
  0.00000000E+00  0.00000000E+00  0.00000000E+00
  0.00000000E+00  0.00000000E+00  0.00000000E+00
  0.00000000E+00  0.00000000E+00  0.00000000E+00
  0.00000000E+00  0.00000000E+00  0.00000000E+00
  0.00000000E+00  0.00000000E+00  0.00000000E+00
  0.00000000E+00  0.00000000E+00  0.00000000E+00
  0.00000000E+00  0.00000000E+00  0.00000000E+00
  0.00000000E+00  0.00000000E+00  0.00000000E+00
  0.00000000E+00  0.00000000E+00  0.00000000E+00
  0.00000000E+00  0.00000000E+00  0.00000000E+00
  0.00000000E+00  0.00000000E+00  0.00000000E+00
  0.00000000E+00  0.00000000E+00  0.00000000E+00
  0.00000000E+00  0.00000000E+00  0.00000000E+00
  0.00000000E+00  0.00000000E+00  0.00000000E+00
  0.00000000E+00  0.00000000E+00  0.00000000E+00
  0.00000000E+00  0.00000000E+00  0.00000000E+00
  0.00000000E+00  0.00000000E+00  0.00000000E+00
  0.00000000E+00  0.00000000E+00  0.00000000E+00
  0.00000000E+00  0.00000000E+00  0.00000000E+00
  0.00000000E+00  0.00000000E+00  0.00000000E+00
  0.00000000E+00  0.00000000E+00  0.00000000E+00
  0.00000000E+00  0.00000000E+00  0.00000000E+00
  0.00000000E+00  0.00000000E+00  0.00000000E+00
  0.00000000E+00  0.00000000E+00  0.00000000E+00
  0.00000000E+00  0.00000000E+00  0.00000000E+00
  0.00000000E+00  0.00000000E+00  0.00000000E+00
  0.00000000E+00  0.00000000E+00  0.00000000E+00
  0.00000000E+00  0.00000000E+00  0.00000000E+00
  0.00000000E+00  0.00000000E+00  0.00000000E+00
  0.00000000E+00  0.00000000E+00  0.00000000E+00
  0.00000000E+00  0.00000000E+00  0.00000000E+00
  0.00000000E+00  0.00000000E+00  0.00000000E+00
