Ir  O  H 
 1.0000000000000000
     9.5301187200000008    0.0000000000000000    0.0000000000000000
     0.0000000000000000   12.7429519599999992    0.0000000000000000
     0.0000000000000000    0.0000000000000000   29.9954083400000009
 Ir  O   H  
  48  98   1
Selective dynamics
Cartesian
  2.7888561076494534  1.5600868590762871  1.2190970821268596   F   F   F
  2.7888561076494534  4.7458248490762864  4.4048353132596265   F   F   F
  2.7887363429362324  1.5654994079064009  7.6164073151373870   T   T   T
  2.7935993477897139  4.7560546936845753 10.7396415751218672   T   T   T
  1.2005030511836066  4.7458248490762864  1.2190970821268596   F   F   F
  1.2005030511836066  1.5600868590762871  4.4048353132596265   F   F   F
  1.1986089584346069  4.7495224086215266  7.5970947519147103   T   T   T
  1.2010768427495240  1.5708708589991804 10.8380773539718795   T   T   T
  5.9655624111836065  1.5600868590762871  1.2190970821268596   F   F   F
  5.9655624111836065  4.7458248490762864  4.4048353132596265   F   F   F
  5.9649141476302416  1.5612216346034957  7.6161608660217013   T   T   T
  5.9792554840207774  4.7555815142006459 10.8333681537313637   T   T   T
  4.3772092594165644  4.7458248490762864  1.2190970821268596   F   F   F
  4.3772092594165644  1.5600868590762871  4.4048353132596265   F   F   F
  4.3881006419976938  4.7505136181923238  7.6075148547385263   T   T   T
  4.3773155663086296  1.5675472927530958 10.8357619317088165   T   T   T
  9.1422686194165639  1.5600868590762871  1.2190970821268596   F   F   F
  9.1422686194165639  4.7458248490762864  4.4048353132596265   F   F   F
  9.1414996396721193  1.5650120541528902  7.6164706422843880   T   T   T
  9.1475117135472601  4.7560556840591630 10.7423865373365697   T   T   T
  7.5539154676494542  4.7458248490762864  1.2190970821268596   F   F   F
  7.5539154676494542  1.5600868590762871  4.4048353132596265   F   F   F
  7.5384797938592341  4.7491065607364966  7.6098546130473226   T   T   T
  7.5550403547245102  1.5661096756188397 10.8355197177894187   T   T   T
  2.7888561076494534  7.9315628390762862  1.2190970821268596   F   F   F
  2.7888561076494534 11.1173008290762869  4.4048353132596265   F   F   F
  2.7881395406889715  7.9343890298965940  7.6166330118730805   T   T   T
  2.7873937409388900 11.1274656118529052 10.7537620288835480   T   T   T
  1.2005030511836066 11.1173008290762869  1.2190970821268596   F   F   F
  1.2005030511836066  7.9315628390762862  4.4048353132596265   F   F   F
  1.1995506584722058 11.1211675733364004  7.6053977355553828   T   T   T
  1.2005288089043884  7.9410366523251303 10.8383687526847492   T   T   T
  5.9655624111836065  7.9315628390762862  1.2190970821268596   F   F   F
  5.9655624111836065 11.1173008290762869  4.4048353132596265   F   F   F
  5.9646226236553437  7.9383613490068798  7.6159807564638440   T   T   T
  5.9647099664120251 11.1272121494781295 10.7567562613465100   T   T   T
  4.3772092594165644 11.1173008290762869  1.2190970821268596   F   F   F
  4.3772092594165644  7.9315628390762862  4.4048353132596265   F   F   F
  4.3758141837466011 11.1213237059497363  7.6054308669802744   T   T   T
  4.3765697512221520  7.9442281795507430 10.8362098331354169   T   T   T
  9.1422686194165639  7.9315628390762862  1.2190970821268596   F   F   F
  9.1422686194165639 11.1173008290762869  4.4048353132596265   F   F   F
  9.1410906599458972  7.9341053149225926  7.6165365135696863   T   T   T
  9.1427992023460494 11.1272560007351249 10.7543712039582999   T   T   T
  7.5539154676494542 11.1173008290762869  1.2190970821268596   F   F   F
  7.5539154676494542  7.9315628390762862  4.4048353132596265   F   F   F
  7.5537406962240485 11.1208458735421232  7.6057848116979612   T   T   T
  7.5541582159693457  7.9448116586392885 10.8353713986497091   T   T   T
  1.2005030511836066  2.7791840472187124  1.2190970821268596   F   F   F
  1.2005030511836066  5.9649220372187113  4.4048353132596265   F   F   F
  1.1999363571435977  2.7854364305759334  7.6067765577114859   T   T   T
  1.2036861694981749  5.9728466919660628 10.8361241463946296   T   T   T
  1.2005030511836066  0.3409896709337700  1.2190970821268596   F   F   F
  1.2005030511836066  3.5267276609337697  4.4048353132596265   F   F   F
  1.1999825403639082  0.3450476354227569  7.6163828691084383   T   T   T
  1.2043870816590432  3.5386787896336158 10.8403248388409814   T   T   T
  2.7888561076494534  4.7458248490762864  2.4381944642078266   F   F   F
  2.7888561076494534  1.5600868590762871  5.6239323953864897   F   F   F
  2.7905195832810041  4.7462566786364233  8.8188620385347374   T   T   T
  2.7913336862372540  1.5670047991870923 12.0345731391347250   T   T   T
  2.7888561076494534  4.7458248490762864  0.0000000000000000   F   F   F
  2.7888561076494534  1.5600868590762871  3.1857379311786600   F   F   F
  2.7915987685084009  4.7501976666523547  6.3778588503728884   T   T   T
  2.7885323981630390  1.5704344449849856  9.5886441646894021   T   T   T
  4.3772092594165644  2.7791840472187124  1.2190970821268596   F   F   F
  4.3772092594165644  5.9649220372187113  4.4048353132596265   F   F   F
  4.3791237009140218  2.7838185681295986  7.6067903966510215   T   T   T
  4.3714034164196693  5.9791618158133426 10.8254507022280837   T   T   T
  4.3772092594165644  0.3409896709337700  1.2190970821268596   F   F   F
  4.3772092594165644  3.5267276609337697  4.4048353132596265   F   F   F
  4.3759191875948416  0.3433171003591921  7.6164070645657480   T   T   T
  4.3742475026515244  3.5337594362668745 10.8280196839893819   T   T   T
  5.9655624111836065  4.7458248490762864  2.4381944642078266   F   F   F
  5.9655624111836065  1.5600868590762871  5.6239323953864897   F   F   F
  5.9601038708042919  4.7450791711309694  8.8474196944349970   T   T   T
  5.9665121497352906  1.5515431986369290 12.0295138538345920   T   T   T
  5.9655624111836065  4.7458248490762864  0.0000000000000000   F   F   F
  5.9655624111836065  1.5600868590762871  3.1857379311786600   F   F   F
  5.9647969705378276  4.7493808174565162  6.3752642556344652   T   T   T
  5.9650611662979518  1.5649704466836436  9.5868892247192381   T   T   T
  7.5539154676494542  2.7791840472187124  1.2190970821268596   F   F   F
  7.5539154676494542  5.9649220372187113  4.4048353132596265   F   F   F
  7.5501886061815044  2.7825707946549194  7.6085276335398779   T   T   T
  7.5633995403694705  5.9796353693420405 10.8124632849701250   T   T   T
  7.5539154676494542  0.3409896709337700  1.2190970821268596   F   F   F
  7.5539154676494542  3.5267276609337697  4.4048353132596265   F   F   F
  7.5538952956282026  0.3427620323229844  7.6174178809591959   T   T   T
  7.5658315008563068  3.5308847465675908 10.8204743224372599   T   T   T
  9.1422686194165639  4.7458248490762864  2.4381944642078266   F   F   F
  9.1422686194165639  1.5600868590762871  5.6239323953864897   F   F   F
  9.1380901101882301  4.7416721392180854  8.8180555749499785   T   T   T
  9.1410468369893429  1.5642330515577640 12.0342758653827406   T   T   T
  9.1422686194165639  4.7458248490762864  0.0000000000000000   F   F   F
  9.1422686194165639  1.5600868590762871  3.1857379311786600   F   F   F
  9.1352380370423081  4.7496006833169933  6.3787206228225788   T   T   T
  9.1431741852759423  1.5680759762865562  9.5885959667975911   T   T   T
  1.2005030511836066  9.1506600272187129  1.2190970821268596   F   F   F
  1.2005030511836066 12.3363980172187127  4.4048353132596265   F   F   F
  1.1994072909428617  9.1540756091287978  7.6120271448997538   T   T   T
  1.2001511222659704 12.3460427520755385 10.8468176032089012   T   T   T
  1.2005030511836066  6.7124656509337699  1.2190970821268596   F   F   F
  1.2005030511836066  9.8982036409337706  4.4048353132596265   F   F   F
  1.1992348488349562  6.7134534123263521  7.6122056893945587   T   T   T
  1.1999226400065732  9.9085873982492583 10.8516536314639946   T   T   T
  2.7888561076494534 11.1173008290762869  2.4381944642078266   F   F   F
  2.7888561076494534  7.9315628390762862  5.6239323953864897   F   F   F
  2.7879572973118405 11.1164322305880710  8.8293807728933089   T   T   T
  2.7907986773001645  7.9440578760154805 12.0351927023991738   T   T   T
  2.7888561076494534 11.1173008290762869  0.0000000000000000   F   F   F
  2.7888561076494534  7.9315628390762862  3.1857379311786600   F   F   F
  2.7878512266163700 11.1213129785317903  6.3751038912582603   T   T   T
  2.7878770232630079  7.9398559747391815  9.5889685240006894   T   T   T
  4.3772092594165644  9.1506600272187129  1.2190970821268596   F   F   F
  4.3772092594165644 12.3363980172187127  4.4048353132596265   F   F   F
  4.3756948589294549  9.1560429047940346  7.6114216182941359   T   T   T
  4.3766279623930044 12.3450342744373494 10.8407414825268553   T   T   T
  4.3772092594165644  6.7124656509337699  1.2190970821268596   F   F   F
  4.3772092594165644  9.8982036409337706  4.4048353132596265   F   F   F
  4.3786111110248278  6.7161996825341053  7.6111857610938909   T   T   T
  4.3763845244125346  9.9094315351022484 10.8441650508872129   T   T   T
  5.9655624111836065 11.1173008290762869  2.4381944642078266   F   F   F
  5.9655624111836065  7.9315628390762862  5.6239323953864897   F   F   F
  5.9645537637687394 11.1151325008330559  8.8310189433305784   T   T   T
  5.9656231914636058  7.9617086767330418 12.0293922927073531   T   T   T
  5.9655624111836065 11.1173008290762869  0.0000000000000000   F   F   F
  5.9655624111836065  7.9315628390762862  3.1857379311786600   F   F   F
  5.9651234668013453 11.1206243074231867  6.3756527062202180   T   T   T
  5.9638369981086345  7.9442278031535434  9.5866375806896276   T   T   T
  7.5539154676494542  9.1506600272187129  1.2190970821268596   F   F   F
  7.5539154676494542 12.3363980172187127  4.4048353132596265   F   F   F
  7.5538703768963682  9.1559529033934748  7.6123806416856636   T   T   T
  7.5531604317843364 12.3445244944197867 10.8421107801605991   T   T   T
  7.5539154676494542  6.7124656509337699  1.2190970821268596   F   F   F
  7.5539154676494542  9.8982036409337706  4.4048353132596265   F   F   F
  7.5497164567220816  6.7159204544939950  7.6134275835661667   T   T   T
  7.5533781036412524  9.9095353640316013 10.8471421815218392   T   T   T
  9.1422686194165639 11.1173008290762869  2.4381944642078266   F   F   F
  9.1422686194165639  7.9315628390762862  5.6239323953864897   F   F   F
  9.1412792958685127 11.1162108075319441  8.8297871123737703   T   T   T
  9.1401081802049795  7.9416782777184833 12.0345931570828579   T   T   T
  9.1422686194165639 11.1173008290762869  0.0000000000000000   F   F   F
  9.1422686194165639  7.9315628390762862  3.1857379311786600   F   F   F
  9.1418458981293576 11.1208391195508050  6.3751252984598636   T   T   T
  9.1425892578229639  7.9401084778598863  9.5887117157471007   T   T   T
  5.9230309590513750  4.7950611432968442 12.7651841498530487   T   T   T
  7.2277142776454140  4.7232276476752979 13.3510513251187408   T   T   T
  7.0233825958176865  4.9797487732565280 14.2801949169836426   T   T   T
