Ir O  H                                 
   1.00000000000000     
     9.5301189999999991    0.0000000000000000    0.0000000000000000
     0.0000000000000000   12.7429520000000007    0.0000000000000000
     0.0000000000000000    0.0000000000000000   29.9954089999999987
   Ir   O    H 
    48   100     4
Selective dynamics
Direct
  0.2926360000000017  0.1224270000000018  0.0406430000000029   F   F   F
  0.2926360000000017  0.3724270000000018  0.1468500000000006   F   F   F
  0.2930564179898115  0.1226070822161886  0.2538322952388676   T   T   T
  0.2940549561729264  0.3734616841474639  0.3615802914816494   T   T   T
  0.1259689999999978  0.3724270000000018  0.0406430000000029   F   F   F
  0.1259689999999978  0.1224270000000018  0.1468500000000006   F   F   F
  0.1279375875929805  0.3727832777217224  0.2535975914720001   T   T   T
  0.1270842947383900  0.1235120516685244  0.3613483855021133   T   T   T
  0.6259689999999978  0.1224270000000018  0.0406430000000029   F   F   F
  0.6259689999999978  0.3724270000000018  0.1468500000000006   F   F   F
  0.6264234604063407  0.1229598957857127  0.2538589570842342   T   T   T
  0.6266521259952523  0.3735645128981153  0.3583374384421451   T   T   T
  0.4593029999999985  0.3724270000000018  0.0406430000000029   F   F   F
  0.4593029999999985  0.1224270000000018  0.1468500000000006   F   F   F
  0.4582053336497718  0.3728705899586833  0.2535917270987620   T   T   T
  0.4603395039687896  0.1236061104172066  0.3612127925064871   T   T   T
  0.9593029999999985  0.1224270000000018  0.0406430000000029   F   F   F
  0.9593029999999985  0.3724270000000018  0.1468500000000006   F   F   F
  0.9597546087965404  0.1229356249270035  0.2538964638935493   T   T   T
  0.9603127022078548  0.3735377868917787  0.3586097943664783   T   T   T
  0.7926360000000017  0.3724270000000018  0.0406430000000029   F   F   F
  0.7926360000000017  0.1224270000000018  0.1468500000000006   F   F   F
  0.7932808448279983  0.3728207293101715  0.2531211799274146   T   T   T
  0.7936142045935184  0.1237780205606882  0.3614111161824869   T   T   T
  0.2926360000000017  0.6224270000000018  0.0406430000000029   F   F   F
  0.2926360000000017  0.8724270000000018  0.1468500000000006   F   F   F
  0.2930840160353554  0.6230363458475496  0.2538611098611493   T   T   T
  0.2934507856270107  0.8734871389801335  0.3605061323073868   T   T   T
  0.1259689999999978  0.8724270000000018  0.0406430000000029   F   F   F
  0.1259689999999978  0.6224270000000018  0.1468500000000006   F   F   F
  0.1264303105516745  0.8728119610442266  0.2535678038486067   T   T   T
  0.1271932888709387  0.6234264508096651  0.3613630336598987   T   T   T
  0.6259689999999978  0.6224270000000018  0.0406430000000029   F   F   F
  0.6259689999999978  0.8724270000000018  0.1468500000000006   F   F   F
  0.6264680588602490  0.6227274229848118  0.2538926350901384   T   T   T
  0.6267875505695373  0.8734966828216760  0.3603725456344025   T   T   T
  0.4593029999999985  0.8724270000000018  0.0406430000000029   F   F   F
  0.4593029999999985  0.6224270000000018  0.1468500000000006   F   F   F
  0.4598708228341609  0.8728394043652741  0.2535565529418781   T   T   T
  0.4603968051317867  0.6233573231164031  0.3612732037350285   T   T   T
  0.9593029999999985  0.6224270000000018  0.0406430000000029   F   F   F
  0.9593029999999985  0.8724270000000018  0.1468500000000006   F   F   F
  0.9597810041547472  0.6227071593286142  0.2539270466849504   T   T   T
  0.9600818091706453  0.8734917528592977  0.3603861259475193   T   T   T
  0.7926360000000017  0.8724270000000018  0.0406430000000029   F   F   F
  0.7926360000000017  0.6224270000000018  0.1468500000000006   F   F   F
  0.7931259881601053  0.8728275344844915  0.2535736088105652   T   T   T
  0.7936898571612517  0.6232565725568429  0.3614477452893030   T   T   T
  0.1259689999999978  0.2180960000000027  0.0406430000000029   F   F   F
  0.1259689999999978  0.4680960000000027  0.1468500000000006   F   F   F
  0.1267201243221167  0.2184148854933145  0.2537104306555530   T   T   T
  0.1264844713855740  0.4688188548088068  0.3618988839748261   T   T   T
  0.1259689999999978  0.0267589999999984  0.0406430000000029   F   F   F
  0.1259689999999978  0.2767589999999984  0.1468500000000006   F   F   F
  0.1263281773645727  0.0270285332088907  0.2534236797317067   T   T   T
  0.1263501652263900  0.2780798994379853  0.3622120145102433   T   T   T
  0.2926360000000017  0.3724270000000018  0.0812859999999986   F   F   F
  0.2926360000000017  0.1224270000000018  0.1874930000000035   F   F   F
  0.2929954251904189  0.3729817394406507  0.2948295496612396   T   T   T
  0.2938295467475481  0.1235646466168095  0.4004678136265241   T   T   T
  0.2926360000000017  0.3724270000000018  0.0000000000000000   F   F   F
  0.2926360000000017  0.1224270000000018  0.1062080000000023   F   F   F
  0.2930596751363627  0.3728819369937588  0.2124147253459042   T   T   T
  0.2934657992605820  0.1232730571093720  0.3194764597483965   T   T   T
  0.4593029999999985  0.2180960000000027  0.0406430000000029   F   F   F
  0.4593029999999985  0.4680960000000027  0.1468500000000006   F   F   F
  0.4593806718035583  0.2184639117575554  0.2536658393453193   T   T   T
  0.4613598846163925  0.4692451428449066  0.3608667308148664   T   T   T
  0.4593029999999985  0.0267589999999984  0.0406430000000029   F   F   F
  0.4593029999999985  0.2767589999999984  0.1468500000000006   F   F   F
  0.4598565047447612  0.0270522878654042  0.2534118308749613   T   T   T
  0.4611068097905043  0.2777736050350262  0.3606900435335355   T   T   T
  0.6259689999999978  0.3724270000000018  0.0812859999999986   F   F   F
  0.6259689999999978  0.1224270000000018  0.1874930000000035   F   F   F
  0.6265269008565558  0.3718173021644783  0.2937140593108400   T   T   T
  0.6267358395818905  0.1253211814113672  0.4006503994659841   T   T   T
  0.6259689999999978  0.3724270000000018  0.0000000000000000   F   F   F
  0.6259689999999978  0.1224270000000018  0.1062080000000023   F   F   F
  0.6256525754609908  0.3728309357976380  0.2125799648413876   T   T   T
  0.6270240512140722  0.1236083795736573  0.3195574278308356   T   T   T
  0.7926360000000017  0.2180960000000027  0.0406430000000029   F   F   F
  0.7926360000000017  0.4680960000000027  0.1468500000000006   F   F   F
  0.7931153922820789  0.2186336985998413  0.2537080246906488   T   T   T
  0.7934823210353419  0.4684946689580333  0.3624999374058974   T   T   T
  0.7926360000000017  0.0267589999999984  0.0406430000000029   F   F   F
  0.7926360000000017  0.2767589999999984  0.1468500000000006   F   F   F
  0.7930799598041446  0.0272193706992776  0.2534387382089380   T   T   T
  0.7934691058800680  0.2785088370610019  0.3625266754278106   T   T   T
  0.9593029999999985  0.3724270000000018  0.0812859999999986   F   F   F
  0.9593029999999985  0.1224270000000018  0.1874930000000035   F   F   F
  0.9601199288566625  0.3717968680296669  0.2937679857328813   T   T   T
  0.9604114295529971  0.1257941527997188  0.4007877634490126   T   T   T
  0.9593029999999985  0.3724270000000018  0.0000000000000000   F   F   F
  0.9593029999999985  0.1224270000000018  0.1062080000000023   F   F   F
  0.9605091449109376  0.3727490797634678  0.2125838819584966   T   T   T
  0.9602626225163274  0.1238288335214941  0.3196323953335187   T   T   T
  0.1259689999999978  0.7180960000000027  0.0406430000000029   F   F   F
  0.1259689999999978  0.9680960000000027  0.1468500000000006   F   F   F
  0.1263637185492880  0.7185891556692938  0.2532989987715845   T   T   T
  0.1270493604772461  0.9692300144221219  0.3595655336966012   T   T   T
  0.1259689999999978  0.5267589999999984  0.0406430000000029   F   F   F
  0.1259689999999978  0.7767589999999984  0.1468500000000006   F   F   F
  0.1266660934619801  0.5271584419045113  0.2539234864759169   T   T   T
  0.1270805111997329  0.7777183635653174  0.3597245732607094   T   T   T
  0.2926360000000017  0.8724270000000018  0.0812859999999986   F   F   F
  0.2926360000000017  0.6224270000000018  0.1874930000000035   F   F   F
  0.2932596986046722  0.8729479837501153  0.2942766078810584   T   T   T
  0.2938691507652110  0.6236914051669542  0.4004832208737888   T   T   T
  0.2926360000000017  0.8724270000000018  0.0000000000000000   F   F   F
  0.2926360000000017  0.6224270000000018  0.1062080000000023   F   F   F
  0.2931198714068177  0.8727062992238279  0.2128082999376802   T   T   T
  0.2935885507709814  0.6233396517723402  0.3195025190261145   T   T   T
  0.4593029999999985  0.7180960000000027  0.0406430000000029   F   F   F
  0.4593029999999985  0.9680960000000027  0.1468500000000006   F   F   F
  0.4598476807984875  0.7186108902498048  0.2532823199822924   T   T   T
  0.4604423592304092  0.9693199451814124  0.3596055904748594   T   T   T
  0.4593029999999985  0.5267589999999984  0.0406430000000029   F   F   F
  0.4593029999999985  0.7767589999999984  0.1468500000000006   F   F   F
  0.4595163649100648  0.5272065215819606  0.2538834199399011   T   T   T
  0.4604636394813328  0.7776680663182297  0.3597165963394351   T   T   T
  0.6259689999999978  0.8724270000000018  0.0812859999999986   F   F   F
  0.6259689999999978  0.6224270000000018  0.1874930000000035   F   F   F
  0.6266532238522223  0.8728949400762926  0.2942758628918259   T   T   T
  0.6268148885447812  0.6217563608758336  0.4007050320892572   T   T   T
  0.6259689999999978  0.8724270000000018  0.0000000000000000   F   F   F
  0.6259689999999978  0.6224270000000018  0.1062080000000023   F   F   F
  0.6264289367517539  0.8726626895988606  0.2128151221250923   T   T   T
  0.6270683613782619  0.6229999219897526  0.3195990268602444   T   T   T
  0.7926360000000017  0.7180960000000027  0.0406430000000029   F   F   F
  0.7926360000000017  0.9680960000000027  0.1468500000000006   F   F   F
  0.7931381132739216  0.7184339300262362  0.2533597144407954   T   T   T
  0.7938187189718809  0.9693968404458144  0.3595781520160163   T   T   T
  0.7926360000000017  0.5267589999999984  0.0406430000000029   F   F   F
  0.7926360000000017  0.7767589999999984  0.1468500000000006   F   F   F
  0.7931464098979518  0.5269467777661063  0.2539777265153464   T   T   T
  0.7938633781656315  0.7776251572244540  0.3597257048661799   T   T   T
  0.9593029999999985  0.8724270000000018  0.0812859999999986   F   F   F
  0.9593029999999985  0.6224270000000018  0.1874930000000035   F   F   F
  0.9598775676761754  0.8728990090175003  0.2942911335459251   T   T   T
  0.9604878813471006  0.6211516177167558  0.4008085815479973   T   T   T
  0.9593029999999985  0.8724270000000018  0.0000000000000000   F   F   F
  0.9593029999999985  0.6224270000000018  0.1062080000000023   F   F   F
  0.9597271893976548  0.8726768009606612  0.2128313932156099   T   T   T
  0.9603233747853943  0.6227493305877702  0.3196598751389619   T   T   T
  0.3069273673644365  0.3738536401939721  0.4258974876773151   T   T   T
  0.3026690035430591  0.8739235837511792  0.4251902763139682   T   T   T
  0.9685855161979748  0.8739746691313299  0.4250290298863025   T   T   T
  0.6359937850620051  0.8740285464287552  0.4250184231400175   T   T   T
  0.2144026221596602  0.3672089618147090  0.4397175279708136   T   T   T
  0.8731850633187588  0.8745437249736070  0.4375063533105219   T   T   T
  0.2075578845099708  0.8740652138821877  0.4378352658707053   T   T   T
  0.5407960820389075  0.8744702710474067  0.4376345421612131   T   T   T
 
  0.00000000E+00  0.00000000E+00  0.00000000E+00
  0.00000000E+00  0.00000000E+00  0.00000000E+00
  0.00000000E+00  0.00000000E+00  0.00000000E+00
  0.00000000E+00  0.00000000E+00  0.00000000E+00
  0.00000000E+00  0.00000000E+00  0.00000000E+00
  0.00000000E+00  0.00000000E+00  0.00000000E+00
  0.00000000E+00  0.00000000E+00  0.00000000E+00
  0.00000000E+00  0.00000000E+00  0.00000000E+00
  0.00000000E+00  0.00000000E+00  0.00000000E+00
  0.00000000E+00  0.00000000E+00  0.00000000E+00
  0.00000000E+00  0.00000000E+00  0.00000000E+00
  0.00000000E+00  0.00000000E+00  0.00000000E+00
  0.00000000E+00  0.00000000E+00  0.00000000E+00
  0.00000000E+00  0.00000000E+00  0.00000000E+00
  0.00000000E+00  0.00000000E+00  0.00000000E+00
  0.00000000E+00  0.00000000E+00  0.00000000E+00
  0.00000000E+00  0.00000000E+00  0.00000000E+00
  0.00000000E+00  0.00000000E+00  0.00000000E+00
  0.00000000E+00  0.00000000E+00  0.00000000E+00
  0.00000000E+00  0.00000000E+00  0.00000000E+00
  0.00000000E+00  0.00000000E+00  0.00000000E+00
  0.00000000E+00  0.00000000E+00  0.00000000E+00
  0.00000000E+00  0.00000000E+00  0.00000000E+00
  0.00000000E+00  0.00000000E+00  0.00000000E+00
  0.00000000E+00  0.00000000E+00  0.00000000E+00
  0.00000000E+00  0.00000000E+00  0.00000000E+00
  0.00000000E+00  0.00000000E+00  0.00000000E+00
  0.00000000E+00  0.00000000E+00  0.00000000E+00
  0.00000000E+00  0.00000000E+00  0.00000000E+00
  0.00000000E+00  0.00000000E+00  0.00000000E+00
  0.00000000E+00  0.00000000E+00  0.00000000E+00
  0.00000000E+00  0.00000000E+00  0.00000000E+00
  0.00000000E+00  0.00000000E+00  0.00000000E+00
  0.00000000E+00  0.00000000E+00  0.00000000E+00
  0.00000000E+00  0.00000000E+00  0.00000000E+00
  0.00000000E+00  0.00000000E+00  0.00000000E+00
  0.00000000E+00  0.00000000E+00  0.00000000E+00
  0.00000000E+00  0.00000000E+00  0.00000000E+00
  0.00000000E+00  0.00000000E+00  0.00000000E+00
  0.00000000E+00  0.00000000E+00  0.00000000E+00
  0.00000000E+00  0.00000000E+00  0.00000000E+00
  0.00000000E+00  0.00000000E+00  0.00000000E+00
  0.00000000E+00  0.00000000E+00  0.00000000E+00
  0.00000000E+00  0.00000000E+00  0.00000000E+00
  0.00000000E+00  0.00000000E+00  0.00000000E+00
  0.00000000E+00  0.00000000E+00  0.00000000E+00
  0.00000000E+00  0.00000000E+00  0.00000000E+00
  0.00000000E+00  0.00000000E+00  0.00000000E+00
  0.00000000E+00  0.00000000E+00  0.00000000E+00
  0.00000000E+00  0.00000000E+00  0.00000000E+00
  0.00000000E+00  0.00000000E+00  0.00000000E+00
  0.00000000E+00  0.00000000E+00  0.00000000E+00
  0.00000000E+00  0.00000000E+00  0.00000000E+00
  0.00000000E+00  0.00000000E+00  0.00000000E+00
  0.00000000E+00  0.00000000E+00  0.00000000E+00
  0.00000000E+00  0.00000000E+00  0.00000000E+00
  0.00000000E+00  0.00000000E+00  0.00000000E+00
  0.00000000E+00  0.00000000E+00  0.00000000E+00
  0.00000000E+00  0.00000000E+00  0.00000000E+00
  0.00000000E+00  0.00000000E+00  0.00000000E+00
  0.00000000E+00  0.00000000E+00  0.00000000E+00
  0.00000000E+00  0.00000000E+00  0.00000000E+00
  0.00000000E+00  0.00000000E+00  0.00000000E+00
  0.00000000E+00  0.00000000E+00  0.00000000E+00
  0.00000000E+00  0.00000000E+00  0.00000000E+00
  0.00000000E+00  0.00000000E+00  0.00000000E+00
  0.00000000E+00  0.00000000E+00  0.00000000E+00
  0.00000000E+00  0.00000000E+00  0.00000000E+00
  0.00000000E+00  0.00000000E+00  0.00000000E+00
  0.00000000E+00  0.00000000E+00  0.00000000E+00
  0.00000000E+00  0.00000000E+00  0.00000000E+00
  0.00000000E+00  0.00000000E+00  0.00000000E+00
  0.00000000E+00  0.00000000E+00  0.00000000E+00
  0.00000000E+00  0.00000000E+00  0.00000000E+00
  0.00000000E+00  0.00000000E+00  0.00000000E+00
  0.00000000E+00  0.00000000E+00  0.00000000E+00
  0.00000000E+00  0.00000000E+00  0.00000000E+00
  0.00000000E+00  0.00000000E+00  0.00000000E+00
  0.00000000E+00  0.00000000E+00  0.00000000E+00
  0.00000000E+00  0.00000000E+00  0.00000000E+00
  0.00000000E+00  0.00000000E+00  0.00000000E+00
  0.00000000E+00  0.00000000E+00  0.00000000E+00
  0.00000000E+00  0.00000000E+00  0.00000000E+00
  0.00000000E+00  0.00000000E+00  0.00000000E+00
  0.00000000E+00  0.00000000E+00  0.00000000E+00
  0.00000000E+00  0.00000000E+00  0.00000000E+00
  0.00000000E+00  0.00000000E+00  0.00000000E+00
  0.00000000E+00  0.00000000E+00  0.00000000E+00
  0.00000000E+00  0.00000000E+00  0.00000000E+00
  0.00000000E+00  0.00000000E+00  0.00000000E+00
  0.00000000E+00  0.00000000E+00  0.00000000E+00
  0.00000000E+00  0.00000000E+00  0.00000000E+00
  0.00000000E+00  0.00000000E+00  0.00000000E+00
  0.00000000E+00  0.00000000E+00  0.00000000E+00
  0.00000000E+00  0.00000000E+00  0.00000000E+00
  0.00000000E+00  0.00000000E+00  0.00000000E+00
  0.00000000E+00  0.00000000E+00  0.00000000E+00
  0.00000000E+00  0.00000000E+00  0.00000000E+00
  0.00000000E+00  0.00000000E+00  0.00000000E+00
  0.00000000E+00  0.00000000E+00  0.00000000E+00
  0.00000000E+00  0.00000000E+00  0.00000000E+00
  0.00000000E+00  0.00000000E+00  0.00000000E+00
  0.00000000E+00  0.00000000E+00  0.00000000E+00
  0.00000000E+00  0.00000000E+00  0.00000000E+00
  0.00000000E+00  0.00000000E+00  0.00000000E+00
  0.00000000E+00  0.00000000E+00  0.00000000E+00
  0.00000000E+00  0.00000000E+00  0.00000000E+00
  0.00000000E+00  0.00000000E+00  0.00000000E+00
  0.00000000E+00  0.00000000E+00  0.00000000E+00
  0.00000000E+00  0.00000000E+00  0.00000000E+00
  0.00000000E+00  0.00000000E+00  0.00000000E+00
  0.00000000E+00  0.00000000E+00  0.00000000E+00
  0.00000000E+00  0.00000000E+00  0.00000000E+00
  0.00000000E+00  0.00000000E+00  0.00000000E+00
  0.00000000E+00  0.00000000E+00  0.00000000E+00
  0.00000000E+00  0.00000000E+00  0.00000000E+00
  0.00000000E+00  0.00000000E+00  0.00000000E+00
  0.00000000E+00  0.00000000E+00  0.00000000E+00
  0.00000000E+00  0.00000000E+00  0.00000000E+00
  0.00000000E+00  0.00000000E+00  0.00000000E+00
  0.00000000E+00  0.00000000E+00  0.00000000E+00
  0.00000000E+00  0.00000000E+00  0.00000000E+00
  0.00000000E+00  0.00000000E+00  0.00000000E+00
  0.00000000E+00  0.00000000E+00  0.00000000E+00
  0.00000000E+00  0.00000000E+00  0.00000000E+00
  0.00000000E+00  0.00000000E+00  0.00000000E+00
  0.00000000E+00  0.00000000E+00  0.00000000E+00
  0.00000000E+00  0.00000000E+00  0.00000000E+00
  0.00000000E+00  0.00000000E+00  0.00000000E+00
  0.00000000E+00  0.00000000E+00  0.00000000E+00
  0.00000000E+00  0.00000000E+00  0.00000000E+00
  0.00000000E+00  0.00000000E+00  0.00000000E+00
  0.00000000E+00  0.00000000E+00  0.00000000E+00
  0.00000000E+00  0.00000000E+00  0.00000000E+00
  0.00000000E+00  0.00000000E+00  0.00000000E+00
  0.00000000E+00  0.00000000E+00  0.00000000E+00
  0.00000000E+00  0.00000000E+00  0.00000000E+00
  0.00000000E+00  0.00000000E+00  0.00000000E+00
  0.00000000E+00  0.00000000E+00  0.00000000E+00
  0.00000000E+00  0.00000000E+00  0.00000000E+00
  0.00000000E+00  0.00000000E+00  0.00000000E+00
  0.00000000E+00  0.00000000E+00  0.00000000E+00
  0.00000000E+00  0.00000000E+00  0.00000000E+00
  0.00000000E+00  0.00000000E+00  0.00000000E+00
  0.00000000E+00  0.00000000E+00  0.00000000E+00
  0.00000000E+00  0.00000000E+00  0.00000000E+00
  0.00000000E+00  0.00000000E+00  0.00000000E+00
  0.00000000E+00  0.00000000E+00  0.00000000E+00
  0.00000000E+00  0.00000000E+00  0.00000000E+00
  0.00000000E+00  0.00000000E+00  0.00000000E+00
  0.00000000E+00  0.00000000E+00  0.00000000E+00
  0.00000000E+00  0.00000000E+00  0.00000000E+00
