Ir  O  H                                
   1.00000000000000     
     9.5301187200000008    0.0000000000000000    0.0000000000000000
     0.0000000000000000   12.7429519599999992    0.0000000000000000
     0.0000000000000000    0.0000000000000000   29.9954083400000009
   Ir   O    H 
    48    97     1
Selective dynamics
Direct
  0.2926360299999970  0.1224274300000019  0.0406427899999997   F   F   F
  0.2926360299999970  0.3724274300000019  0.1468503199999986   F   F   F
  0.2927918175276716  0.1226462834784456  0.2538892844312386   T   T   T
  0.2929656692235554  0.3726723252662225  0.3581154676181910   T   T   T
  0.1259693700000000  0.3724274300000019  0.0406427899999997   F   F   F
  0.1259693700000000  0.1224274300000019  0.1468503199999986   F   F   F
  0.1260646013618114  0.3725399396319418  0.2534028058366005   T   T   T
  0.1262031549464382  0.1226944189058514  0.3612650011149867   T   T   T
  0.6259693700000000  0.1224274300000019  0.0406427899999997   F   F   F
  0.6259693700000000  0.3724274300000019  0.1468503199999986   F   F   F
  0.6260978498449532  0.1223239143229975  0.2538786952340573   T   T   T
  0.6261595475881450  0.3726869316109358  0.3613519236387219   T   T   T
  0.4593027000000021  0.3724274300000019  0.0406427899999997   F   F   F
  0.4593027000000021  0.1224274300000019  0.1468503199999986   F   F   F
  0.4609860169500450  0.3725251130428120  0.2536277203474882   T   T   T
  0.4594961369538666  0.1226723445111162  0.3612375616784504   T   T   T
  0.9593027000000021  0.1224274300000019  0.0406427899999997   F   F   F
  0.9593027000000021  0.3724274300000019  0.1468503199999986   F   F   F
  0.9593864520550284  0.1226462467461289  0.2539014643814923   T   T   T
  0.9597630135305835  0.3726898298899499  0.3581728706033971   T   T   T
  0.7926360299999970  0.3724274300000019  0.0406427899999997   F   F   F
  0.7926360299999970  0.1224274300000019  0.1468503199999986   F   F   F
  0.7912606350386113  0.3725482250025252  0.2536491738522386   T   T   T
  0.7928676743976979  0.1225978876334040  0.3612695131635419   T   T   T
  0.2926360299999970  0.6224274300000019  0.0406427899999997   F   F   F
  0.2926360299999970  0.8724274300000019  0.1468503199999986   F   F   F
  0.2927957515613357  0.6224317584698227  0.2538879408829331   T   T   T
  0.2928434471363985  0.8726858570684968  0.3584905680170465   T   T   T
  0.1259693700000000  0.8724274300000019  0.0406427899999997   F   F   F
  0.1259693700000000  0.6224274300000019  0.1468503199999986   F   F   F
  0.1260962605340552  0.8725419832855010  0.2535932156461129   T   T   T
  0.1262306226506382  0.6226706877307180  0.3612568602380790   T   T   T
  0.6259693700000000  0.6224274300000019  0.0406427899999997   F   F   F
  0.6259693700000000  0.8724274300000019  0.1468503199999986   F   F   F
  0.6261004920865361  0.6227572528531695  0.2538734594995375   T   T   T
  0.6262106210624339  0.8726877411712053  0.3585895653222053   T   T   T
  0.4593027000000021  0.8724274300000019  0.0406427899999997   F   F   F
  0.4593027000000021  0.6224274300000019  0.1468503199999986   F   F   F
  0.4593717281432106  0.8725351594443680  0.2536088477385334   T   T   T
  0.4595291598894562  0.6227099696278415  0.3612229017595325   T   T   T
  0.9593027000000021  0.6224274300000019  0.0406427899999997   F   F   F
  0.9593027000000021  0.8724274300000019  0.1468503199999986   F   F   F
  0.9593949607063976  0.6224372673199525  0.2538970297908705   T   T   T
  0.9596008749486202  0.8726862774354913  0.3584792998185193   T   T   T
  0.7926360299999970  0.8724274300000019  0.0406427899999997   F   F   F
  0.7926360299999970  0.6224274300000019  0.1468503199999986   F   F   F
  0.7928087458063970  0.8725327322012575  0.2536079392053381   T   T   T
  0.7928984174733316  0.6227691079177120  0.3612704793563708   T   T   T
  0.1259693700000000  0.2180957799999987  0.0406427899999997   F   F   F
  0.1259693700000000  0.4680957799999987  0.1468503199999986   F   F   F
  0.1260801740925714  0.2184222810789080  0.2536473430700212   T   T   T
  0.1263562147367097  0.4683546635716880  0.3606108097246334   T   T   T
  0.1259693700000000  0.0267590799999979  0.0406427899999997   F   F   F
  0.1259693700000000  0.2767590799999979  0.1468503199999986   F   F   F
  0.1260854639907834  0.0268712259905612  0.2538409826806358   T   T   T
  0.1263219246708758  0.2770025414282742  0.3606798346386313   T   T   T
  0.2926360299999970  0.3724274300000019  0.0812855900000002   F   F   F
  0.2926360299999970  0.1224274300000019  0.1874931099999984   F   F   F
  0.2933333485243423  0.3725089209611667  0.2941611994685118   T   T   T
  0.2929440591768895  0.1223556489831807  0.4008976405928095   T   T   T
  0.2926360299999970  0.3724274300000019  0.0000000000000000   F   F   F
  0.2926360299999970  0.1224274300000019  0.1062075199999981   F   F   F
  0.2931154716933619  0.3725354105421133  0.2127315447016187   T   T   T
  0.2928865086588317  0.1228851275071889  0.3196006859187790   T   T   T
  0.4593027000000021  0.2180957799999987  0.0406427899999997   F   F   F
  0.4593027000000021  0.4680957799999987  0.1468503199999986   F   F   F
  0.4597259096008059  0.2182337297193371  0.2535695644677460   T   T   T
  0.4591095811488373  0.4685523244130465  0.3602813663900406   T   T   T
  0.4593027000000021  0.0267590799999979  0.0406427899999997   F   F   F
  0.4593027000000021  0.2767590799999979  0.1468503199999986   F   F   F
  0.4593825425838460  0.0267219727690886  0.2538409280044505   T   T   T
  0.4590492960095105  0.2767980423209622  0.3604148162459353   T   T   T
  0.6259693700000000  0.3724274300000019  0.0812855900000002   F   F   F
  0.6259693700000000  0.1224274300000019  0.1874931099999984   F   F   F
  0.6261923861515157  0.3724833141839241  0.2947228824270525   T   T   T
  0.6261750098922150  0.1213561987451754  0.4007713271465434   T   T   T
  0.6259693700000000  0.3724274300000019  0.0000000000000000   F   F   F
  0.6259693700000000  0.1224274300000019  0.1062075199999981   F   F   F
  0.6261113006352090  0.3724840357577008  0.2125211810288334   T   T   T
  0.6262168483091273  0.1226771959195716  0.3195653738492013   T   T   T
  0.7926360299999970  0.2180957799999987  0.0406427899999997   F   F   F
  0.7926360299999970  0.4680957799999987  0.1468503199999986   F   F   F
  0.7924658384298269  0.2182368399030636  0.2535990108059423   T   T   T
  0.7932147720953964  0.4684055647031116  0.3607410588140141   T   T   T
  0.7926360299999970  0.0267590799999979  0.0406427899999997   F   F   F
  0.7926360299999970  0.2767590799999979  0.1468503199999986   F   F   F
  0.7928331114104168  0.0267236372575610  0.2538701922206030   T   T   T
  0.7931558519452935  0.2769889014719809  0.3607462810925242   T   T   T
  0.9593027000000021  0.3724274300000019  0.0812855900000002   F   F   F
  0.9593027000000021  0.1224274300000019  0.1874931099999984   F   F   F
  0.9588478807771921  0.3724074025038888  0.2942054681102064   T   T   T
  0.9595193986206567  0.1223400871019820  0.4009037898131069   T   T   T
  0.9593027000000021  0.3724274300000019  0.0000000000000000   F   F   F
  0.9593027000000021  0.1224274300000019  0.1062075199999981   F   F   F
  0.9589614031869758  0.3725066812289910  0.2127431162306763   T   T   T
  0.9594211780412962  0.1229200554112992  0.3196131572069376   T   T   T
  0.1259693700000000  0.7180957799999987  0.0406427899999997   F   F   F
  0.1259693700000000  0.9680957799999987  0.1468503199999986   F   F   F
  0.1260929176317092  0.7182002193396073  0.2537948302347104   T   T   T
  0.1262066032182645  0.9684548055843365  0.3608879169107411   T   T   T
  0.1259693700000000  0.5267590799999979  0.0406427899999997   F   F   F
  0.1259693700000000  0.7767590799999979  0.1468503199999986   F   F   F
  0.1260901533618721  0.5266456523624115  0.2536991728003599   T   T   T
  0.1262029400926750  0.7769107634065406  0.3609410367241992   T   T   T
  0.2926360299999970  0.8724274300000019  0.0812855900000002   F   F   F
  0.2926360299999970  0.6224274300000019  0.1874931099999984   F   F   F
  0.2927614181927893  0.8724848187921737  0.2944531437439579   T   T   T
  0.2929753104942421  0.6229896394816521  0.4008826431712436   T   T   T
  0.2926360299999970  0.8724274300000019  0.0000000000000000   F   F   F
  0.2926360299999970  0.6224274300000019  0.1062075199999981   F   F   F
  0.2927164916898235  0.8725529655879569  0.2126022287652276   T   T   T
  0.2929122024869173  0.6225036554442624  0.3195959770777392   T   T   T
  0.4593027000000021  0.7180957799999987  0.0406427899999997   F   F   F
  0.4593027000000021  0.9680957799999987  0.1468503199999986   F   F   F
  0.4593467265714750  0.7183432269628938  0.2537917793030218   T   T   T
  0.4595359213064754  0.9684402556475220  0.3608074868679694   T   T   T
  0.4593027000000021  0.5267590799999979  0.0406427899999997   F   F   F
  0.4593027000000021  0.7767590799999979  0.1468503199999986   F   F   F
  0.4597513624269496  0.5268255499173975  0.2536189500819006   T   T   T
  0.4595407065189008  0.7769389236469166  0.3608706636179519   T   T   T
  0.6259693700000000  0.8724274300000019  0.0812855900000002   F   F   F
  0.6259693700000000  0.6224274300000019  0.1874931099999984   F   F   F
  0.6261060073086284  0.8723269145467114  0.2945155465509401   T   T   T
  0.6261901797776517  0.6239481138657013  0.4007647246136798   T   T   T
  0.6259693700000000  0.8724274300000019  0.0000000000000000   F   F   F
  0.6259693700000000  0.6224274300000019  0.1062075199999981   F   F   F
  0.6260677267457169  0.8724950483125298  0.2126264989301205   T   T   T
  0.6262618923384764  0.6226267019814316  0.3195589566930011   T   T   T
  0.7926360299999970  0.7180957799999987  0.0406427899999997   F   F   F
  0.7926360299999970  0.9680957799999987  0.1468503199999986   F   F   F
  0.7928226085402983  0.7183426076818336  0.2537900927649090   T   T   T
  0.7929042225890015  0.9684143222434827  0.3608108086124346   T   T   T
  0.7926360299999970  0.5267590799999979  0.0406427899999997   F   F   F
  0.7926360299999970  0.7767590799999979  0.1468503199999986   F   F   F
  0.7924907079592174  0.5268488795706503  0.2536401141463216   T   T   T
  0.7929188571285621  0.7769499284160730  0.3608751756942539   T   T   T
  0.9593027000000021  0.8724274300000019  0.0812855900000002   F   F   F
  0.9593027000000021  0.6224274300000019  0.1874931099999984   F   F   F
  0.9594604994961671  0.8723409922604475  0.2944441969413631   T   T   T
  0.9595449138146250  0.6228210032709427  0.4009001239987739   T   T   T
  0.9593027000000021  0.8724274300000019  0.0000000000000000   F   F   F
  0.9593027000000021  0.6224274300000019  0.1062075199999981   F   F   F
  0.9594266064412267  0.8725039676822846  0.2125997362714998   T   T   T
  0.9594419327736148  0.6223612779539636  0.3196102072654412   T   T   T
  0.6166696977209298  0.3728184190045880  0.4256773008082178   T   T   T
  0.7104440953783495  0.3750068739108556  0.4390541686236418   T   T   T
 
  0.00000000E+00  0.00000000E+00  0.00000000E+00
  0.00000000E+00  0.00000000E+00  0.00000000E+00
  0.00000000E+00  0.00000000E+00  0.00000000E+00
  0.00000000E+00  0.00000000E+00  0.00000000E+00
  0.00000000E+00  0.00000000E+00  0.00000000E+00
  0.00000000E+00  0.00000000E+00  0.00000000E+00
  0.00000000E+00  0.00000000E+00  0.00000000E+00
  0.00000000E+00  0.00000000E+00  0.00000000E+00
  0.00000000E+00  0.00000000E+00  0.00000000E+00
  0.00000000E+00  0.00000000E+00  0.00000000E+00
  0.00000000E+00  0.00000000E+00  0.00000000E+00
  0.00000000E+00  0.00000000E+00  0.00000000E+00
  0.00000000E+00  0.00000000E+00  0.00000000E+00
  0.00000000E+00  0.00000000E+00  0.00000000E+00
  0.00000000E+00  0.00000000E+00  0.00000000E+00
  0.00000000E+00  0.00000000E+00  0.00000000E+00
  0.00000000E+00  0.00000000E+00  0.00000000E+00
  0.00000000E+00  0.00000000E+00  0.00000000E+00
  0.00000000E+00  0.00000000E+00  0.00000000E+00
  0.00000000E+00  0.00000000E+00  0.00000000E+00
  0.00000000E+00  0.00000000E+00  0.00000000E+00
  0.00000000E+00  0.00000000E+00  0.00000000E+00
  0.00000000E+00  0.00000000E+00  0.00000000E+00
  0.00000000E+00  0.00000000E+00  0.00000000E+00
  0.00000000E+00  0.00000000E+00  0.00000000E+00
  0.00000000E+00  0.00000000E+00  0.00000000E+00
  0.00000000E+00  0.00000000E+00  0.00000000E+00
  0.00000000E+00  0.00000000E+00  0.00000000E+00
  0.00000000E+00  0.00000000E+00  0.00000000E+00
  0.00000000E+00  0.00000000E+00  0.00000000E+00
  0.00000000E+00  0.00000000E+00  0.00000000E+00
  0.00000000E+00  0.00000000E+00  0.00000000E+00
  0.00000000E+00  0.00000000E+00  0.00000000E+00
  0.00000000E+00  0.00000000E+00  0.00000000E+00
  0.00000000E+00  0.00000000E+00  0.00000000E+00
  0.00000000E+00  0.00000000E+00  0.00000000E+00
  0.00000000E+00  0.00000000E+00  0.00000000E+00
  0.00000000E+00  0.00000000E+00  0.00000000E+00
  0.00000000E+00  0.00000000E+00  0.00000000E+00
  0.00000000E+00  0.00000000E+00  0.00000000E+00
  0.00000000E+00  0.00000000E+00  0.00000000E+00
  0.00000000E+00  0.00000000E+00  0.00000000E+00
  0.00000000E+00  0.00000000E+00  0.00000000E+00
  0.00000000E+00  0.00000000E+00  0.00000000E+00
  0.00000000E+00  0.00000000E+00  0.00000000E+00
  0.00000000E+00  0.00000000E+00  0.00000000E+00
  0.00000000E+00  0.00000000E+00  0.00000000E+00
  0.00000000E+00  0.00000000E+00  0.00000000E+00
  0.00000000E+00  0.00000000E+00  0.00000000E+00
  0.00000000E+00  0.00000000E+00  0.00000000E+00
  0.00000000E+00  0.00000000E+00  0.00000000E+00
  0.00000000E+00  0.00000000E+00  0.00000000E+00
  0.00000000E+00  0.00000000E+00  0.00000000E+00
  0.00000000E+00  0.00000000E+00  0.00000000E+00
  0.00000000E+00  0.00000000E+00  0.00000000E+00
  0.00000000E+00  0.00000000E+00  0.00000000E+00
  0.00000000E+00  0.00000000E+00  0.00000000E+00
  0.00000000E+00  0.00000000E+00  0.00000000E+00
  0.00000000E+00  0.00000000E+00  0.00000000E+00
  0.00000000E+00  0.00000000E+00  0.00000000E+00
  0.00000000E+00  0.00000000E+00  0.00000000E+00
  0.00000000E+00  0.00000000E+00  0.00000000E+00
  0.00000000E+00  0.00000000E+00  0.00000000E+00
  0.00000000E+00  0.00000000E+00  0.00000000E+00
  0.00000000E+00  0.00000000E+00  0.00000000E+00
  0.00000000E+00  0.00000000E+00  0.00000000E+00
  0.00000000E+00  0.00000000E+00  0.00000000E+00
  0.00000000E+00  0.00000000E+00  0.00000000E+00
  0.00000000E+00  0.00000000E+00  0.00000000E+00
  0.00000000E+00  0.00000000E+00  0.00000000E+00
  0.00000000E+00  0.00000000E+00  0.00000000E+00
  0.00000000E+00  0.00000000E+00  0.00000000E+00
  0.00000000E+00  0.00000000E+00  0.00000000E+00
  0.00000000E+00  0.00000000E+00  0.00000000E+00
  0.00000000E+00  0.00000000E+00  0.00000000E+00
  0.00000000E+00  0.00000000E+00  0.00000000E+00
  0.00000000E+00  0.00000000E+00  0.00000000E+00
  0.00000000E+00  0.00000000E+00  0.00000000E+00
  0.00000000E+00  0.00000000E+00  0.00000000E+00
  0.00000000E+00  0.00000000E+00  0.00000000E+00
  0.00000000E+00  0.00000000E+00  0.00000000E+00
  0.00000000E+00  0.00000000E+00  0.00000000E+00
  0.00000000E+00  0.00000000E+00  0.00000000E+00
  0.00000000E+00  0.00000000E+00  0.00000000E+00
  0.00000000E+00  0.00000000E+00  0.00000000E+00
  0.00000000E+00  0.00000000E+00  0.00000000E+00
  0.00000000E+00  0.00000000E+00  0.00000000E+00
  0.00000000E+00  0.00000000E+00  0.00000000E+00
  0.00000000E+00  0.00000000E+00  0.00000000E+00
  0.00000000E+00  0.00000000E+00  0.00000000E+00
  0.00000000E+00  0.00000000E+00  0.00000000E+00
  0.00000000E+00  0.00000000E+00  0.00000000E+00
  0.00000000E+00  0.00000000E+00  0.00000000E+00
  0.00000000E+00  0.00000000E+00  0.00000000E+00
  0.00000000E+00  0.00000000E+00  0.00000000E+00
  0.00000000E+00  0.00000000E+00  0.00000000E+00
  0.00000000E+00  0.00000000E+00  0.00000000E+00
  0.00000000E+00  0.00000000E+00  0.00000000E+00
  0.00000000E+00  0.00000000E+00  0.00000000E+00
  0.00000000E+00  0.00000000E+00  0.00000000E+00
  0.00000000E+00  0.00000000E+00  0.00000000E+00
  0.00000000E+00  0.00000000E+00  0.00000000E+00
  0.00000000E+00  0.00000000E+00  0.00000000E+00
  0.00000000E+00  0.00000000E+00  0.00000000E+00
  0.00000000E+00  0.00000000E+00  0.00000000E+00
  0.00000000E+00  0.00000000E+00  0.00000000E+00
  0.00000000E+00  0.00000000E+00  0.00000000E+00
  0.00000000E+00  0.00000000E+00  0.00000000E+00
  0.00000000E+00  0.00000000E+00  0.00000000E+00
  0.00000000E+00  0.00000000E+00  0.00000000E+00
  0.00000000E+00  0.00000000E+00  0.00000000E+00
  0.00000000E+00  0.00000000E+00  0.00000000E+00
  0.00000000E+00  0.00000000E+00  0.00000000E+00
  0.00000000E+00  0.00000000E+00  0.00000000E+00
  0.00000000E+00  0.00000000E+00  0.00000000E+00
  0.00000000E+00  0.00000000E+00  0.00000000E+00
  0.00000000E+00  0.00000000E+00  0.00000000E+00
  0.00000000E+00  0.00000000E+00  0.00000000E+00
  0.00000000E+00  0.00000000E+00  0.00000000E+00
  0.00000000E+00  0.00000000E+00  0.00000000E+00
  0.00000000E+00  0.00000000E+00  0.00000000E+00
  0.00000000E+00  0.00000000E+00  0.00000000E+00
  0.00000000E+00  0.00000000E+00  0.00000000E+00
  0.00000000E+00  0.00000000E+00  0.00000000E+00
  0.00000000E+00  0.00000000E+00  0.00000000E+00
  0.00000000E+00  0.00000000E+00  0.00000000E+00
  0.00000000E+00  0.00000000E+00  0.00000000E+00
  0.00000000E+00  0.00000000E+00  0.00000000E+00
  0.00000000E+00  0.00000000E+00  0.00000000E+00
  0.00000000E+00  0.00000000E+00  0.00000000E+00
  0.00000000E+00  0.00000000E+00  0.00000000E+00
  0.00000000E+00  0.00000000E+00  0.00000000E+00
  0.00000000E+00  0.00000000E+00  0.00000000E+00
  0.00000000E+00  0.00000000E+00  0.00000000E+00
  0.00000000E+00  0.00000000E+00  0.00000000E+00
  0.00000000E+00  0.00000000E+00  0.00000000E+00
  0.00000000E+00  0.00000000E+00  0.00000000E+00
  0.00000000E+00  0.00000000E+00  0.00000000E+00
  0.00000000E+00  0.00000000E+00  0.00000000E+00
  0.00000000E+00  0.00000000E+00  0.00000000E+00
  0.00000000E+00  0.00000000E+00  0.00000000E+00
  0.00000000E+00  0.00000000E+00  0.00000000E+00
  0.00000000E+00  0.00000000E+00  0.00000000E+00
  0.00000000E+00  0.00000000E+00  0.00000000E+00
  0.00000000E+00  0.00000000E+00  0.00000000E+00
  0.00000000E+00  0.00000000E+00  0.00000000E+00
