Ir  O  H 
 1.0000000000000000
     9.5301187200000008    0.0000000000000000    0.0000000000000000
     0.0000000000000000   12.7429519599999992    0.0000000000000000
     0.0000000000000000    0.0000000000000000   29.9954083400000009
 Ir  O   H  
  48  97   1
Selective dynamics
Cartesian
  2.7888561076494534  1.5600868590762871  1.2190970821268596   F   F   F
  2.7888561076494534  4.7458248490762864  4.4048353132596265   F   F   F
  2.7903407812832635  1.5628756984383525  7.6155127596653571   T   T   T
  2.7919976085847260  4.7489455376889715 10.7418196840775853   T   T   T
  1.2005030511836066  4.7458248490762864  1.2190970821268596   F   F   F
  1.2005030511836066  1.5600868590762871  4.4048353132596265   F   F   F
  1.2014106173675607  4.7472585539111103  7.6009206355704828   T   T   T
  1.2027310494781038  1.5634890858773829 10.8362912273945380   T   T   T
  5.9655624111836065  1.5600868590762871  1.2190970821268596   F   F   F
  5.9655624111836065  4.7458248490762864  4.4048353132596265   F   F   F
  5.9667868393591386  1.5587677637771409  7.6151951323719267   T   T   T
  5.9673748261765098  4.7491316656379396 10.8388985039878669   T   T   T
  4.3772092594165644  4.7458248490762864  1.2190970821268596   F   F   F
  4.3772092594165644  1.5600868590762871  4.4048353132596265   F   F   F
  4.3932514697938743  4.7470696193981032  7.6076670381661753   T   T   T
  4.3790527365516976  1.5632077929257275 10.8354681702909605   T   T   T
  9.1422686194165639  1.5600868590762871  1.2190970821268596   F   F   F
  9.1422686194165639  4.7458248490762864  4.4048353132596265   F   F   F
  9.1430667864440061  1.5628752303602442  7.6158781022467910   T   T   T
  9.1466554620114220  4.7491685982682075 10.7435415100588809   T   T   T
  7.5539154676494542  4.7458248490762864  1.2190970821268596   F   F   F
  7.5539154676494542  1.5600868590762871  4.4048353132596265   F   F   F
  7.5408077903805903  4.7473641339904571  7.6083105448016157   T   T   T
  7.5561230662603380  1.5622589925099575 10.8364265681333638   T   T   T
  2.7888561076494534  7.9315628390762862  1.2190970821268596   F   F   F
  2.7888561076494534 11.1173008290762869  4.4048353132596265   F   F   F
  2.7903782730911502  7.9316179965593037  7.6154724593854155   T   T   T
  2.7908328175839521 11.1205939527952591 10.7530709737097752   T   T   T
  1.2005030511836066 11.1173008290762869  1.2190970821268596   F   F   F
  1.2005030511836066  7.9315628390762862  4.4048353132596265   F   F   F
  1.2017123330375798 11.1187605760902386  7.6066320555587357   T   T   T
  1.2029928199601208  7.9346626606527257 10.8360470384675907   T   T   T
  5.9655624111836065  7.9315628390762862  1.2190970821268596   F   F   F
  5.9655624111836065 11.1173008290762869  4.4048353132596265   F   F   F
  5.9668120202350936  7.9357657558495038  7.6150380843770220   T   T   T
  5.9678615624499276 11.1206179618255945 10.7560404383027368   T   T   T
  4.3772092594165644 11.1173008290762869  1.2190970821268596   F   F   F
  4.3772092594165644  7.9315628390762862  4.4048353132596265   F   F   F
  4.3778671058163292 11.1186736202105223  7.6071009465542128   T   T   T
  4.3793674490483783  7.9351632279806079 10.8350284400368970   T   T   T
  9.1422686194165639  7.9315628390762862  1.2190970821268596   F   F   F
  9.1422686194165639 11.1173008290762869  4.4048353132596265   F   F   F
  9.1431478749017092  7.9316881955718017  7.6157450848903991   T   T   T
  9.1451102620762352 11.1205993095116575 10.7527329794937803   T   T   T
  7.5539154676494542 11.1173008290762869  1.2190970821268596   F   F   F
  7.5539154676494542  7.9315628390762862  4.4048353132596265   F   F   F
  7.5555614697892395 11.1186426899681994  7.6070736947299116   T   T   T
  7.5564160514210013  7.9359168243674647 10.8364555494817996   T   T   T
  1.2005030511836066  2.7791840472187124  1.2190970821268596   F   F   F
  1.2005030511836066  5.9649220372187113  4.4048353132596265   F   F   F
  1.2015590273404868  2.7833446347821353  7.6082556297412882   T   T   T
  1.2041897274506432  5.9682209781359674 10.8166684895083325   T   T   T
  1.2005030511836066  0.3409896709337700  1.2190970821268596   F   F   F
  1.2005030511836066  3.5267276609337697  4.4048353132596265   F   F   F
  1.2016094406984612  0.3424187419040019  7.6140639289326257   T   T   T
  1.2038629390523750  3.5298300782183825 10.8187389199894053   T   T   T
  2.7888561076494534  4.7458248490762864  2.4381944642078266   F   F   F
  2.7888561076494534  1.5600868590762871  5.6239323953864897   F   F   F
  2.7955016359721490  4.7468632844796090  8.8234852958422305   T   T   T
  2.7917916622744583  1.5591721570272872 12.0250884321237930   T   T   T
  2.7888561076494534  4.7458248490762864  0.0000000000000000   F   F   F
  2.7888561076494534  1.5600868590762871  3.1857379311786600   F   F   F
  2.7934252439065346  4.7472008399370687  6.3809695501241084   T   T   T
  2.7912431990049829  1.5659192764225469  9.5865530798779215   T   T   T
  4.3772092594165644  2.7791840472187124  1.2190970821268596   F   F   F
  4.3772092594165644  5.9649220372187113  4.4048353132596265   F   F   F
  4.3812424971556796  2.7809419338651642  7.6059226288059225   T   T   T
  4.3753688138378921  5.9707397607417807 10.8067867021625243   T   T   T
  4.3772092594165644  0.3409896709337700  1.2190970821268596   F   F   F
  4.3772092594165644  3.5267276609337697  4.4048353132596265   F   F   F
  4.3779701687195134  0.3405168152729441  7.6140622888981184   T   T   T
  4.3747942893030460  3.5272241559180331 10.8107895850828637   T   T   T
  5.9655624111836065  4.7458248490762864  2.4381944642078266   F   F   F
  5.9655624111836065  1.5600868590762871  5.6239323953864897   F   F   F
  5.9676877815840594  4.7465369785473293  8.8403332055413522   T   T   T
  5.9675221837699652  1.5464362106580056 12.0212996087242292   T   T   T
  5.9655624111836065  4.7458248490762864  0.0000000000000000   F   F   F
  5.9655624111836065  1.5600868590762871  3.1857379311786600   F   F   F
  5.9669150269871629  4.7465461735273005  6.3746596058588825   T   T   T
  5.9679209088502247  1.5632696141905795  9.5854938799314624   T   T   T
  7.5539154676494542  2.7791840472187124  1.2190970821268596   F   F   F
  7.5539154676494542  5.9649220372187113  4.4048353132596265   F   F   F
  7.5522935217806078  2.7809815667869109  7.6068058837443440   T   T   T
  7.5594309485268587  5.9688696088083857 10.8205753641303364   T   T   T
  7.5539154676494542  0.3409896709337700  1.2190970821268596   F   F   F
  7.5539154676494542  3.5267276609337697  4.4048353132596265   F   F   F
  7.5557936768882712  0.3405380257695397  7.6149400810112358   T   T   T
  7.5588694325013739  3.5296562649106433 10.8207320085067060   T   T   T
  9.1422686194165639  4.7458248490762864  2.4381944642078266   F   F   F
  9.1422686194165639  1.5600868590762871  5.6239323953864897   F   F   F
  9.1379341382270525  4.7455696396554066  8.8248131518264650   T   T   T
  9.1443337829978297  1.5589738527228072 12.0252728804976954   T   T   T
  9.1422686194165639  4.7458248490762864  0.0000000000000000   F   F   F
  9.1422686194165639  1.5600868590762871  3.1857379311786600   F   F   F
  9.1390160202696773  4.7468347436800578  6.3813166428631529   T   T   T
  9.1433977292158310  1.5663643610267599  9.5869271612587728   T   T   T
  1.2005030511836066  9.1506600272187129  1.2190970821268596   F   F   F
  1.2005030511836066 12.3363980172187127  4.4048353132596265   F   F   F
  1.2016804747813978  9.1519908927061202  7.6126795674711998   T   T   T
  1.2027639119180062 12.3409730629923242 10.8249804327096673   T   T   T
  1.2005030511836066  6.7124656509337699  1.2190970821268596   F   F   F
  1.2005030511836066  9.8982036409337706  4.4048353132596265   F   F   F
  1.2016541309616346  6.7110202479971015  7.6098102836670432   T   T   T
  1.2027290018962344  9.9001365352964452 10.8265737832052196   T   T   T
  2.7888561076494534 11.1173008290762869  2.4381944642078266   F   F   F
  2.7888561076494534  7.9315628390762862  5.6239323953864897   F   F   F
  2.7900510720128509 11.1180321316979587  8.8322422835966332   T   T   T
  2.7920894910389573  7.9387270474923870 12.0246385783400598   T   T   T
  2.7888561076494534 11.1173008290762869  0.0000000000000000   F   F   F
  2.7888561076494534  7.9315628390762862  3.1857379311786600   F   F   F
  2.7896229171059268 11.1189005230428926  6.3770906658070663   T   T   T
  2.7914880642370257  7.9325341762506332  9.5864118362680202   T   T   T
  4.3772092594165644  9.1506600272187129  1.2190970821268596   F   F   F
  4.3772092594165644 12.3363980172187127  4.4048353132596265   F   F   F
  4.3776288378695405  9.1538132319795462  7.6125880535292634   T   T   T
  4.3794318861552846 12.3407876538464887 10.8225679007338673   T   T   T
  4.3772092594165644  6.7124656509337699  1.2190970821268596   F   F   F
  4.3772092594165644  9.8982036409337706  4.4048353132596265   F   F   F
  4.3814850656105957  6.7133126738980033  7.6074039704685923   T   T   T
  4.3794774897977859  9.9004953798867827 10.8244629131471779   T   T   T
  5.9655624111836065 11.1173008290762869  2.4381944642078266   F   F   F
  5.9655624111836065  7.9315628390762862  5.6239323953864897   F   F   F
  5.9668645809564005 11.1160199654837619  8.8341140812736683   T   T   T
  5.9676667545791533  7.9509408405232085 12.0211015630550140   T   T   T
  5.9655624111836065 11.1173008290762869  0.0000000000000000   F   F   F
  5.9655624111836065  7.9315628390762862  3.1857379311786600   F   F   F
  5.9664997626471843 11.1181624859844437  6.3778186593135597   T   T   T
  5.9683501837975150  7.9341021523626365  9.5853013947109442   T   T   T
  7.5539154676494542  9.1506600272187129  1.2190970821268596   F   F   F
  7.5539154676494542 12.3363980172187127  4.4048353132596265   F   F   F
  7.5556935832891314  9.1538053405107380  7.6125374651299529   T   T   T
  7.5564713748624834 12.3404571857246559 10.8226675378154713   T   T   T
  7.5539154676494542  6.7124656509337699  1.2190970821268596   F   F   F
  7.5539154676494542  9.8982036409337706  4.4048353132596265   F   F   F
  7.5525305313482187  6.7136099625485928  7.6080387952231670   T   T   T
  7.5566108437618924  9.9006356131314224 10.8245982547183761   T   T   T
  9.1422686194165639 11.1173008290762869  2.4381944642078266   F   F   F
  9.1422686194165639  7.9315628390762862  5.6239323953864897   F   F   F
  9.1437724673489988 11.1161993571136453  8.8319739205995518   T   T   T
  9.1445769458255572  7.9365781243606071 12.0251629228999519   T   T   T
  9.1422686194165639 11.1173008290762869  0.0000000000000000   F   F   F
  9.1422686194165639  7.9315628390762862  3.1857379311786600   F   F   F
  9.1434494625115939 11.1182761450847281  6.3770159024399371   T   T   T
  9.1435955242787852  7.9307198667315362  9.5868386765589193   T   T   T
  5.8769354303069452  4.7508072031786428 12.7683644588115097   T   T   T
  6.7706165728786578  4.7786945789158315 13.1696090712454517   T   T   T
