Ir O  H                                 
   1.00000000000000     
     9.5301189999999991    0.0000000000000000    0.0000000000000000
     0.0000000000000000   12.7429520000000007    0.0000000000000000
     0.0000000000000000    0.0000000000000000   29.9954089999999987
   Ir   O    H 
    48   100     3
Selective dynamics
Direct
  0.2926360000000017  0.1224270000000018  0.0406430000000029   F   F   F
  0.2926360000000017  0.3724270000000018  0.1468500000000006   F   F   F
  0.2924021897800254  0.1230293515771530  0.2538661614047132   T   T   T
  0.2920708675854612  0.3733787561536657  0.3584401281834897   T   T   T
  0.1259689999999978  0.3724270000000018  0.0406430000000029   F   F   F
  0.1259689999999978  0.1224270000000018  0.1468500000000006   F   F   F
  0.1257676249680978  0.3727960874665202  0.2532391941601531   T   T   T
  0.1254616559253058  0.1236325567573132  0.3614019948668674   T   T   T
  0.6259689999999978  0.1224270000000018  0.0406430000000029   F   F   F
  0.6259689999999978  0.3724270000000018  0.1468500000000006   F   F   F
  0.6256866973686709  0.1226009626963188  0.2537748478930205   T   T   T
  0.6254151660673428  0.3733174901049577  0.3644742366179004   T   T   T
  0.4593029999999985  0.3724270000000018  0.0406430000000029   F   F   F
  0.4593029999999985  0.1224270000000018  0.1468500000000006   F   F   F
  0.4610457316412666  0.3727987124737976  0.2538182195071034   T   T   T
  0.4589896973892055  0.1230559398271711  0.3610777684512942   T   T   T
  0.9593029999999985  0.1224270000000018  0.0406430000000029   F   F   F
  0.9593029999999985  0.3724270000000018  0.1468500000000006   F   F   F
  0.9589759815293248  0.1230173532669074  0.2538698309396167   T   T   T
  0.9588624593358066  0.3733797260168863  0.3584544963610357   T   T   T
  0.7926360000000017  0.3724270000000018  0.0406430000000029   F   F   F
  0.7926360000000017  0.1224270000000018  0.1468500000000006   F   F   F
  0.7905040864597268  0.3727731121248121  0.2538204101903755   T   T   T
  0.7919043929188020  0.1230749855865440  0.3610763658247129   T   T   T
  0.2926360000000017  0.6224270000000018  0.0406430000000029   F   F   F
  0.2926360000000017  0.8724270000000018  0.1468500000000006   F   F   F
  0.2924043295726166  0.6225855090950891  0.2538782927615515   T   T   T
  0.2917053737862736  0.8733648103588489  0.3604260501892919   T   T   T
  0.1259689999999978  0.8724270000000018  0.0406430000000029   F   F   F
  0.1259689999999978  0.6224270000000018  0.1468500000000006   F   F   F
  0.1256835692649170  0.8727929725796233  0.2535538952266262   T   T   T
  0.1254959616541004  0.6231256550976163  0.3614197629338193   T   T   T
  0.6259689999999978  0.6224270000000018  0.0406430000000029   F   F   F
  0.6259689999999978  0.8724270000000018  0.1468500000000006   F   F   F
  0.6257055175230398  0.6229851755948929  0.2537968488519670   T   T   T
  0.6251802534897815  0.8733473258897170  0.3606237801725024   T   T   T
  0.4593029999999985  0.8724270000000018  0.0406430000000029   F   F   F
  0.4593029999999985  0.6224270000000018  0.1468500000000006   F   F   F
  0.4589521842955617  0.8727895932486981  0.2535553390053345   T   T   T
  0.4590159015084581  0.6236290857023864  0.3610914012852118   T   T   T
  0.9593029999999985  0.6224270000000018  0.0406430000000029   F   F   F
  0.9593029999999985  0.8724270000000018  0.1468500000000006   F   F   F
  0.9589873280900358  0.6225703749112104  0.2538908162907747   T   T   T
  0.9586868790576867  0.8733610087559052  0.3604284856601576   T   T   T
  0.7926360000000017  0.8724270000000018  0.0406430000000029   F   F   F
  0.7926360000000017  0.6224270000000018  0.1468500000000006   F   F   F
  0.7924199452828453  0.8727832133197448  0.2535635141913988   T   T   T
  0.7919303109068323  0.6236048335802578  0.3611041277152766   T   T   T
  0.1259689999999978  0.2180960000000027  0.0406430000000029   F   F   F
  0.1259689999999978  0.4680960000000027  0.1468500000000006   F   F   F
  0.1257246847177708  0.2186759726900745  0.2537983139480483   T   T   T
  0.1254641790208672  0.4683678222290224  0.3626974263550567   T   T   T
  0.1259689999999978  0.0267589999999984  0.0406430000000029   F   F   F
  0.1259689999999978  0.2767589999999984  0.1468500000000006   F   F   F
  0.1256949585962602  0.0272532878109696  0.2533900503368181   T   T   T
  0.1254701534721727  0.2783218161641356  0.3627311689167186   T   T   T
  0.2926360000000017  0.3724270000000018  0.0812859999999986   F   F   F
  0.2926360000000017  0.1224270000000018  0.1874930000000035   F   F   F
  0.2931150065901047  0.3721339305854474  0.2938807159229575   T   T   T
  0.2925908966211807  0.1250927197373764  0.4005935456244690   T   T   T
  0.2926360000000017  0.3724270000000018  0.0000000000000000   F   F   F
  0.2926360000000017  0.1224270000000018  0.1062080000000023   F   F   F
  0.2930025083967501  0.3728271078923191  0.2126132516609224   T   T   T
  0.2921304703958367  0.1236817967651917  0.3195424349687375   T   T   T
  0.4593029999999985  0.2180960000000027  0.0406430000000029   F   F   F
  0.4593029999999985  0.4680960000000027  0.1468500000000006   F   F   F
  0.4595115900891411  0.2185615682818674  0.2537546985768399   T   T   T
  0.4585228978403539  0.4691002847474536  0.3605421197485390   T   T   T
  0.4593029999999985  0.0267589999999984  0.0406430000000029   F   F   F
  0.4593029999999985  0.2767589999999984  0.1468500000000006   F   F   F
  0.4588777107319057  0.0270310368373453  0.2533479860943539   T   T   T
  0.4585696575581424  0.2775764546606413  0.3606519646964736   T   T   T
  0.6259689999999978  0.3724270000000018  0.0812859999999986   F   F   F
  0.6259689999999978  0.1224270000000018  0.1874930000000035   F   F   F
  0.6257755285531694  0.3727949312422127  0.2954979366415262   T   T   T
  0.6253942634521565  0.1237928995002751  0.4002743206276199   T   T   T
  0.6259689999999978  0.3724270000000018  0.0000000000000000   F   F   F
  0.6259689999999978  0.1224270000000018  0.1062080000000023   F   F   F
  0.6257952327733673  0.3727334087836590  0.2125118604459275   T   T   T
  0.6254704737369751  0.1223480950296443  0.3193391397978638   T   T   T
  0.7926360000000017  0.2180960000000027  0.0406430000000029   F   F   F
  0.7926360000000017  0.4680960000000027  0.1468500000000006   F   F   F
  0.7919152043731197  0.2185494997984214  0.2537524452422019   T   T   T
  0.7924079134229778  0.4690402311132124  0.3607036908594888   T   T   T
  0.7926360000000017  0.0267589999999984  0.0406430000000029   F   F   F
  0.7926360000000017  0.2767589999999984  0.1468500000000006   F   F   F
  0.7924409900282101  0.0270165297658129  0.2533739486320240   T   T   T
  0.7923441887781125  0.2776267976262529  0.3607839475788996   T   T   T
  0.9593029999999985  0.3724270000000018  0.0812859999999986   F   F   F
  0.9593029999999985  0.1224270000000018  0.1874930000000035   F   F   F
  0.9583889025990368  0.3719824065396934  0.2938837578289396   T   T   T
  0.9582325510602843  0.1250431782874688  0.4005623016132864   T   T   T
  0.9593029999999985  0.3724270000000018  0.0000000000000000   F   F   F
  0.9593029999999985  0.1224270000000018  0.1062080000000023   F   F   F
  0.9586256906361836  0.3727444025957041  0.2126272690633045   T   T   T
  0.9588226788015184  0.1236308138752957  0.3195402207958889   T   T   T
  0.1259689999999978  0.7180960000000027  0.0406430000000029   F   F   F
  0.1259689999999978  0.9680960000000027  0.1468500000000006   F   F   F
  0.1257003299403001  0.7183285865481547  0.2532760778943443   T   T   T
  0.1255527716591469  0.9692151122570402  0.3595516822848553   T   T   T
  0.1259689999999978  0.5267589999999984  0.0406430000000029   F   F   F
  0.1259689999999978  0.7767589999999984  0.1468500000000006   F   F   F
  0.1257196436443616  0.5268699635792854  0.2539978562063023   T   T   T
  0.1255656251519984  0.7775502786825164  0.3597270011702379   T   T   T
  0.2926360000000017  0.8724270000000018  0.0812859999999986   F   F   F
  0.2926360000000017  0.6224270000000018  0.1874930000000035   F   F   F
  0.2922576216554651  0.8728489151754102  0.2942610122558262   T   T   T
  0.2926168527717103  0.6215332451357833  0.4006063337210117   T   T   T
  0.2926360000000017  0.8724270000000018  0.0000000000000000   F   F   F
  0.2926360000000017  0.6224270000000018  0.1062080000000023   F   F   F
  0.2924083576083126  0.8726985385832452  0.2128087931183681   T   T   T
  0.2921454927348098  0.6228647463641379  0.3195535579089920   T   T   T
  0.4593029999999985  0.7180960000000027  0.0406430000000029   F   F   F
  0.4593029999999985  0.9680960000000027  0.1468500000000006   F   F   F
  0.4589169364534883  0.7185482444249625  0.2532325572898947   T   T   T
  0.4586663938000956  0.9689184990166848  0.3596532782263975   T   T   T
  0.4593029999999985  0.5267589999999984  0.0406430000000029   F   F   F
  0.4593029999999985  0.7767589999999984  0.1468500000000006   F   F   F
  0.4594726505851293  0.5270238667931945  0.2539029196011253   T   T   T
  0.4586711751769258  0.7777767148726231  0.3598409652376036   T   T   T
  0.6259689999999978  0.8724270000000018  0.0812859999999986   F   F   F
  0.6259689999999978  0.6224270000000018  0.1874930000000035   F   F   F
  0.6256269548581554  0.8728002128314913  0.2943224232925606   T   T   T
  0.6254110036430249  0.6227578626924353  0.4002934272093522   T   T   T
  0.6259689999999978  0.8724270000000018  0.0000000000000000   F   F   F
  0.6259689999999978  0.6224270000000018  0.1062080000000023   F   F   F
  0.6258072222106129  0.8726663330397314  0.2128161921247958   T   T   T
  0.6255074990751370  0.6240936006328881  0.3193582394206430   T   T   T
  0.7926360000000017  0.7180960000000027  0.0406430000000029   F   F   F
  0.7926360000000017  0.9680960000000027  0.1468500000000006   F   F   F
  0.7924681776092208  0.7185559339012400  0.2532825217867575   T   T   T
  0.7923323890376014  0.9688911862673941  0.3596195365650028   T   T   T
  0.7926360000000017  0.5267589999999984  0.0406430000000029   F   F   F
  0.7926360000000017  0.7767589999999984  0.1468500000000006   F   F   F
  0.7919588597099264  0.5269897742472948  0.2539384380384073   T   T   T
  0.7923485746917179  0.7777989206616382  0.3598199602307741   T   T   T
  0.9593029999999985  0.8724270000000018  0.0812859999999986   F   F   F
  0.9593029999999985  0.6224270000000018  0.1874930000000035   F   F   F
  0.9589919343992517  0.8728096863652809  0.2942641498216013   T   T   T
  0.9582912939105623  0.6216094660683146  0.4005864337381289   T   T   T
  0.9593029999999985  0.8724270000000018  0.0000000000000000   F   F   F
  0.9593029999999985  0.6224270000000018  0.1062080000000023   F   F   F
  0.9591706150442652  0.8726647738957557  0.2128070800527749   T   T   T
  0.9588631285110107  0.6228042908111495  0.3195634948764203   T   T   T
  0.6248889806242813  0.3735611536942303  0.4242164182936760   T   T   T
  0.3000621790569158  0.8739323912272651  0.4250483658144223   T   T   T
  0.9680043834231408  0.8739843403270089  0.4250641898173603   T   T   T
  0.6340660828128297  0.8739640215617502  0.4252747188159266   T   T   T
  0.8729950198543469  0.8748044732537896  0.4377799336998947   T   T   T
  0.2047161629553282  0.8745867212647432  0.4375418878718796   T   T   T
  0.5388924863800038  0.8747900077652773  0.4378994046404932   T   T   T
 
  0.00000000E+00  0.00000000E+00  0.00000000E+00
  0.00000000E+00  0.00000000E+00  0.00000000E+00
  0.00000000E+00  0.00000000E+00  0.00000000E+00
  0.00000000E+00  0.00000000E+00  0.00000000E+00
  0.00000000E+00  0.00000000E+00  0.00000000E+00
  0.00000000E+00  0.00000000E+00  0.00000000E+00
  0.00000000E+00  0.00000000E+00  0.00000000E+00
  0.00000000E+00  0.00000000E+00  0.00000000E+00
  0.00000000E+00  0.00000000E+00  0.00000000E+00
  0.00000000E+00  0.00000000E+00  0.00000000E+00
  0.00000000E+00  0.00000000E+00  0.00000000E+00
  0.00000000E+00  0.00000000E+00  0.00000000E+00
  0.00000000E+00  0.00000000E+00  0.00000000E+00
  0.00000000E+00  0.00000000E+00  0.00000000E+00
  0.00000000E+00  0.00000000E+00  0.00000000E+00
  0.00000000E+00  0.00000000E+00  0.00000000E+00
  0.00000000E+00  0.00000000E+00  0.00000000E+00
  0.00000000E+00  0.00000000E+00  0.00000000E+00
  0.00000000E+00  0.00000000E+00  0.00000000E+00
  0.00000000E+00  0.00000000E+00  0.00000000E+00
  0.00000000E+00  0.00000000E+00  0.00000000E+00
  0.00000000E+00  0.00000000E+00  0.00000000E+00
  0.00000000E+00  0.00000000E+00  0.00000000E+00
  0.00000000E+00  0.00000000E+00  0.00000000E+00
  0.00000000E+00  0.00000000E+00  0.00000000E+00
  0.00000000E+00  0.00000000E+00  0.00000000E+00
  0.00000000E+00  0.00000000E+00  0.00000000E+00
  0.00000000E+00  0.00000000E+00  0.00000000E+00
  0.00000000E+00  0.00000000E+00  0.00000000E+00
  0.00000000E+00  0.00000000E+00  0.00000000E+00
  0.00000000E+00  0.00000000E+00  0.00000000E+00
  0.00000000E+00  0.00000000E+00  0.00000000E+00
  0.00000000E+00  0.00000000E+00  0.00000000E+00
  0.00000000E+00  0.00000000E+00  0.00000000E+00
  0.00000000E+00  0.00000000E+00  0.00000000E+00
  0.00000000E+00  0.00000000E+00  0.00000000E+00
  0.00000000E+00  0.00000000E+00  0.00000000E+00
  0.00000000E+00  0.00000000E+00  0.00000000E+00
  0.00000000E+00  0.00000000E+00  0.00000000E+00
  0.00000000E+00  0.00000000E+00  0.00000000E+00
  0.00000000E+00  0.00000000E+00  0.00000000E+00
  0.00000000E+00  0.00000000E+00  0.00000000E+00
  0.00000000E+00  0.00000000E+00  0.00000000E+00
  0.00000000E+00  0.00000000E+00  0.00000000E+00
  0.00000000E+00  0.00000000E+00  0.00000000E+00
  0.00000000E+00  0.00000000E+00  0.00000000E+00
  0.00000000E+00  0.00000000E+00  0.00000000E+00
  0.00000000E+00  0.00000000E+00  0.00000000E+00
  0.00000000E+00  0.00000000E+00  0.00000000E+00
  0.00000000E+00  0.00000000E+00  0.00000000E+00
  0.00000000E+00  0.00000000E+00  0.00000000E+00
  0.00000000E+00  0.00000000E+00  0.00000000E+00
  0.00000000E+00  0.00000000E+00  0.00000000E+00
  0.00000000E+00  0.00000000E+00  0.00000000E+00
  0.00000000E+00  0.00000000E+00  0.00000000E+00
  0.00000000E+00  0.00000000E+00  0.00000000E+00
  0.00000000E+00  0.00000000E+00  0.00000000E+00
  0.00000000E+00  0.00000000E+00  0.00000000E+00
  0.00000000E+00  0.00000000E+00  0.00000000E+00
  0.00000000E+00  0.00000000E+00  0.00000000E+00
  0.00000000E+00  0.00000000E+00  0.00000000E+00
  0.00000000E+00  0.00000000E+00  0.00000000E+00
  0.00000000E+00  0.00000000E+00  0.00000000E+00
  0.00000000E+00  0.00000000E+00  0.00000000E+00
  0.00000000E+00  0.00000000E+00  0.00000000E+00
  0.00000000E+00  0.00000000E+00  0.00000000E+00
  0.00000000E+00  0.00000000E+00  0.00000000E+00
  0.00000000E+00  0.00000000E+00  0.00000000E+00
  0.00000000E+00  0.00000000E+00  0.00000000E+00
  0.00000000E+00  0.00000000E+00  0.00000000E+00
  0.00000000E+00  0.00000000E+00  0.00000000E+00
  0.00000000E+00  0.00000000E+00  0.00000000E+00
  0.00000000E+00  0.00000000E+00  0.00000000E+00
  0.00000000E+00  0.00000000E+00  0.00000000E+00
  0.00000000E+00  0.00000000E+00  0.00000000E+00
  0.00000000E+00  0.00000000E+00  0.00000000E+00
  0.00000000E+00  0.00000000E+00  0.00000000E+00
  0.00000000E+00  0.00000000E+00  0.00000000E+00
  0.00000000E+00  0.00000000E+00  0.00000000E+00
  0.00000000E+00  0.00000000E+00  0.00000000E+00
  0.00000000E+00  0.00000000E+00  0.00000000E+00
  0.00000000E+00  0.00000000E+00  0.00000000E+00
  0.00000000E+00  0.00000000E+00  0.00000000E+00
  0.00000000E+00  0.00000000E+00  0.00000000E+00
  0.00000000E+00  0.00000000E+00  0.00000000E+00
  0.00000000E+00  0.00000000E+00  0.00000000E+00
  0.00000000E+00  0.00000000E+00  0.00000000E+00
  0.00000000E+00  0.00000000E+00  0.00000000E+00
  0.00000000E+00  0.00000000E+00  0.00000000E+00
  0.00000000E+00  0.00000000E+00  0.00000000E+00
  0.00000000E+00  0.00000000E+00  0.00000000E+00
  0.00000000E+00  0.00000000E+00  0.00000000E+00
  0.00000000E+00  0.00000000E+00  0.00000000E+00
  0.00000000E+00  0.00000000E+00  0.00000000E+00
  0.00000000E+00  0.00000000E+00  0.00000000E+00
  0.00000000E+00  0.00000000E+00  0.00000000E+00
  0.00000000E+00  0.00000000E+00  0.00000000E+00
  0.00000000E+00  0.00000000E+00  0.00000000E+00
  0.00000000E+00  0.00000000E+00  0.00000000E+00
  0.00000000E+00  0.00000000E+00  0.00000000E+00
  0.00000000E+00  0.00000000E+00  0.00000000E+00
  0.00000000E+00  0.00000000E+00  0.00000000E+00
  0.00000000E+00  0.00000000E+00  0.00000000E+00
  0.00000000E+00  0.00000000E+00  0.00000000E+00
  0.00000000E+00  0.00000000E+00  0.00000000E+00
  0.00000000E+00  0.00000000E+00  0.00000000E+00
  0.00000000E+00  0.00000000E+00  0.00000000E+00
  0.00000000E+00  0.00000000E+00  0.00000000E+00
  0.00000000E+00  0.00000000E+00  0.00000000E+00
  0.00000000E+00  0.00000000E+00  0.00000000E+00
  0.00000000E+00  0.00000000E+00  0.00000000E+00
  0.00000000E+00  0.00000000E+00  0.00000000E+00
  0.00000000E+00  0.00000000E+00  0.00000000E+00
  0.00000000E+00  0.00000000E+00  0.00000000E+00
  0.00000000E+00  0.00000000E+00  0.00000000E+00
  0.00000000E+00  0.00000000E+00  0.00000000E+00
  0.00000000E+00  0.00000000E+00  0.00000000E+00
  0.00000000E+00  0.00000000E+00  0.00000000E+00
  0.00000000E+00  0.00000000E+00  0.00000000E+00
  0.00000000E+00  0.00000000E+00  0.00000000E+00
  0.00000000E+00  0.00000000E+00  0.00000000E+00
  0.00000000E+00  0.00000000E+00  0.00000000E+00
  0.00000000E+00  0.00000000E+00  0.00000000E+00
  0.00000000E+00  0.00000000E+00  0.00000000E+00
  0.00000000E+00  0.00000000E+00  0.00000000E+00
  0.00000000E+00  0.00000000E+00  0.00000000E+00
  0.00000000E+00  0.00000000E+00  0.00000000E+00
  0.00000000E+00  0.00000000E+00  0.00000000E+00
  0.00000000E+00  0.00000000E+00  0.00000000E+00
  0.00000000E+00  0.00000000E+00  0.00000000E+00
  0.00000000E+00  0.00000000E+00  0.00000000E+00
  0.00000000E+00  0.00000000E+00  0.00000000E+00
  0.00000000E+00  0.00000000E+00  0.00000000E+00
  0.00000000E+00  0.00000000E+00  0.00000000E+00
  0.00000000E+00  0.00000000E+00  0.00000000E+00
  0.00000000E+00  0.00000000E+00  0.00000000E+00
  0.00000000E+00  0.00000000E+00  0.00000000E+00
  0.00000000E+00  0.00000000E+00  0.00000000E+00
  0.00000000E+00  0.00000000E+00  0.00000000E+00
  0.00000000E+00  0.00000000E+00  0.00000000E+00
  0.00000000E+00  0.00000000E+00  0.00000000E+00
  0.00000000E+00  0.00000000E+00  0.00000000E+00
  0.00000000E+00  0.00000000E+00  0.00000000E+00
  0.00000000E+00  0.00000000E+00  0.00000000E+00
  0.00000000E+00  0.00000000E+00  0.00000000E+00
  0.00000000E+00  0.00000000E+00  0.00000000E+00
  0.00000000E+00  0.00000000E+00  0.00000000E+00
  0.00000000E+00  0.00000000E+00  0.00000000E+00
  0.00000000E+00  0.00000000E+00  0.00000000E+00
  0.00000000E+00  0.00000000E+00  0.00000000E+00
  0.00000000E+00  0.00000000E+00  0.00000000E+00
