Ru O  H                                 
   1.00000000000000     
     9.3340239999999994    0.0000000000000000    0.0000000000000000
     0.0000000000000000   12.6784260000000000    0.0000000000000000
     0.0000000000000000    0.0000000000000000   29.9755059999999993
   Ru   O    H 
    48    97     1
Direct
  0.2919928458674363  0.3723352937485212  0.0452435928901625
  0.2912626578799293  0.1223481165529664  0.1439519167860162
  0.2900893622710203  0.3719820627258593  0.2564067440019635
  0.2879861768597268  0.1215346475610817  0.3535878922165203
  0.1273699632936826  0.1223473103854538  0.0350006937704227
  0.1243547379094014  0.3723718745479638  0.1495698889981408
  0.1235414430479054  0.1220509916447821  0.2498870243835979
  0.1238092120182626  0.3722036685627695  0.3658546736451877
  0.6251927397624139  0.3722690718776623  0.0451361337336542
  0.6243786591760264  0.1223530441331076  0.1435320022353404
  0.6234442446700731  0.3722471299095397  0.2566538716783441
  0.6226108335880175  0.1218039131100264  0.3603842448373889
  0.4566804146280530  0.1223491605048764  0.0349460572471623
  0.4579060766694636  0.3722898444138139  0.1495765333729378
  0.4595691339645414  0.1221151901478838  0.2510882204127585
  0.4537447569642826  0.3711016351771765  0.3647764991746638
  0.9587608819110642  0.3723388054063156  0.0451817556033761
  0.9579816434851888  0.1223687024315584  0.1436411478356320
  0.9570424890493632  0.3719903960021554  0.2565853838128117
  0.9562471615203494  0.1218369767366801  0.3537302892419188
  0.7919967894304347  0.1223484706155306  0.0358058685562431
  0.7911321815425953  0.3723331723631059  0.1494953378102762
  0.7878378443257202  0.1221053732597497  0.2510650040507364
  0.7902045012534442  0.3707102612665023  0.3642640121864678
  0.2920244999152780  0.8723353299154980  0.0451689827443529
  0.2911277888873803  0.6223585757114952  0.1437727183048323
  0.2901902348888923  0.8721892086681350  0.2565422565237989
  0.2897535440683471  0.6218807255039370  0.3551861751751878
  0.1273821761307815  0.6223222431473514  0.0348412901465372
  0.1244823959343373  0.8723644350470033  0.1495098745412308
  0.1235182622630117  0.6220786849989957  0.2506583360186821
  0.1217703463674247  0.8711693038870851  0.3658366082824482
  0.6252343464354585  0.8724085605577195  0.0450668845031443
  0.6242691305701552  0.6223485441806363  0.1434311766670426
  0.6237095177323488  0.8719364488101325  0.2566402183397566
  0.6228363708396547  0.6217272196211555  0.3542921294386945
  0.4566072888162988  0.6223208759998990  0.0348975971921218
  0.4578713891230990  0.8724336649821667  0.1495502460305700
  0.4568397860134771  0.6220725053239108  0.2504545045680108
  0.4548080283543999  0.8723459766246666  0.3643606057917771
  0.9587906927842486  0.8723424094935508  0.0451062644006951
  0.9579829968438314  0.6223731875244678  0.1434541363279596
  0.9570911262964322  0.8721699187653974  0.2563758246616422
  0.9555695197407843  0.6215738576790213  0.3551475196517924
  0.7921251451390462  0.6223269287387162  0.0357540706658091
  0.7910869014459014  0.8724070740193633  0.1494077287819609
  0.7904491747069244  0.6220446145543390  0.2503750456971996
  0.7912742157347848  0.8726699703203444  0.3646696610433877
  0.1258367763094458  0.4668063794047911  0.0385363807359892
  0.1244337624125207  0.2188249451545615  0.1454707330800497
  0.1235393881048802  0.4687123303005245  0.2546663990659643
  0.1226612437533882  0.2163424387563368  0.3617520529090665
  0.1258164317735353  0.2778788733287372  0.0385127694718620
  0.1243842844849331  0.0258990050903284  0.1453891400559539
  0.1235337022106285  0.2752147062871333  0.2544796664058269
  0.1221832475175248  0.0269719969259876  0.3617431726409026
  0.2918104045086826  0.1223471730129288  0.0796067674734537
  0.2911482469930207  0.3721575067891205  0.1908925802473909
  0.2909806514409788  0.1218395084540275  0.2910848008652232
  0.2885650148746186  0.3724707270881378  0.4035644947645289
  0.2920308652969676  0.1223523046027014 -0.0033812820060560
  0.2912321365581219  0.3721933507745404  0.1080701755946792
  0.2918359173402425  0.1221032401886916  0.2092781915100422
  0.2890862124584209  0.3718399270515787  0.3207591979479011
  0.4581220494034159  0.4667740346962826  0.0384659045638389
  0.4580322487001723  0.2189653404736873  0.1453879640668683
  0.4567537716314897  0.4684937341127106  0.2549080643394955
  0.4526847198044101  0.2161666228086120  0.3604481015319018
  0.4581079182234139  0.2778445739731827  0.0385051929651338
  0.4580397820844126  0.0257382170472504  0.1453398006462276
  0.4574352530048323  0.2758131986344377  0.2550385428357728
  0.4534603456608682  0.0271702451218720  0.3602561182175221
  0.6249871355788807  0.1223581467050886  0.0790725421700360
  0.6245414175457350  0.3723291049560883  0.1909004814463995
  0.6233082245934372  0.1217737337902240  0.2943138560270345
  0.6216677877078901  0.3710830932657631  0.3998935997912329
  0.6238688954693609  0.1223445981635590 -0.0008117751857464
  0.6245869214933207  0.3723539851802211  0.1080794212865620
  0.6239765680057427  0.1221993999107474  0.2092887048129572
  0.6228032280214736  0.3719733819041354  0.3210599378567437
  0.7920073668256560  0.4668917568277874  0.0388515133947143
  0.7911188219953116  0.2185123342462777  0.1451232259948632
  0.7903276100083457  0.4683644869429956  0.2549972435477341
  0.7917226948433027  0.2165727325363771  0.3594237281663769
  0.7920275648499625  0.2777143185810774  0.0388493859393644
  0.7911757553035211  0.0262102601857082  0.1450555774365400
  0.7897036169376297  0.2759188174816771  0.2551648008916110
  0.7920619758714100  0.0270957043326617  0.3600146888245199
  0.9586828969920836  0.1223874530703655  0.0791617953565609
  0.9571936589028259  0.3721606524714376  0.1908945587052636
  0.9562503783697827  0.1220215577368577  0.2911706555945456
  0.9573975719794793  0.3726492215088689  0.4019095485210433
  0.9601621361959731  0.1223844417702776 -0.0007319164738049
  0.9580238307059827  0.3722426204779172  0.1080818836451886
  0.9556329806669208  0.1221897824716722  0.2092109774957181
  0.9566719354226357  0.3719367973547661  0.3210076096357362
  0.1258638622250960  0.9667930779242578  0.0384733455641324
  0.1244107205520964  0.7189381500046234  0.1453598791666897
  0.1236490093966253  0.9689208392769593  0.2544973154130313
  0.1224615776504520  0.7158723647158854  0.3615668446057351
  0.1258770622552528  0.7778475395365468  0.0384157892386483
  0.1243525523658381  0.5258068621528261  0.1453212219223955
  0.1236266525719326  0.7754530890889425  0.2545820460450502
  0.1230651429847422  0.5275517743200074  0.3617057412921098
  0.2920545224621564  0.6224169550301749  0.0795211410982379
  0.2912254336793471  0.8724838029693062  0.1908851690931243
  0.2901283172433525  0.6220905401739808  0.2922191801438626
  0.2879355644121007  0.8705202231127481  0.4022906017370461
  0.2918792084597369  0.6221906990344016 -0.0035202659485360
  0.2912852340585440  0.8724477468482351  0.1080117438432093
  0.2902004586695107  0.6221296198017522  0.2092830451030173
  0.2891134643921124  0.8718998884679537  0.3209156020484477
  0.4581194555080691  0.9668224276893214  0.0384767987732381
  0.4578239136612420  0.7189602112404109  0.1453927711371523
  0.4575340095038770  0.9682783123543520  0.2551533763979709
  0.4563299971166850  0.7164889148491342  0.3613493690937559
  0.4581726071201498  0.7778987269930667  0.0383675753596841
  0.4578143187499709  0.5257381417970584  0.1453455136918915
  0.4568564185180388  0.7757614771256548  0.2549264694696524
  0.4559613963149354  0.5271356430930015  0.3615315243505732
  0.6249752632970321  0.6224176909496569  0.0790370481460330
  0.6244570792421513  0.8723400753996289  0.1908547856925506
  0.6235209660995096  0.6220113220406308  0.2916770963499528
  0.6231719642607273  0.8719501297179946  0.3998111482230199
  0.6239436236107142  0.6221975083842530 -0.0006760670324927
  0.6245318693808876  0.8723299921279396  0.1080162115567359
  0.6238740146718912  0.6220934975650397  0.2090921168917561
  0.6227962178853160  0.8717095491882255  0.3210311302694995
  0.7920422287443842  0.9669665694111409  0.0387991082326883
  0.7911708820595349  0.7184659198492875  0.1450926449750534
  0.7897960015161369  0.9683287713421473  0.2550561513690646
  0.7894130177187009  0.7164119480938819  0.3615230215250904
  0.7920488555683499  0.7777447078100581  0.0387135972901433
  0.7912370956667660  0.5262607962391954  0.1450812876749011
  0.7904177536240151  0.7756963694768733  0.2547799113803998
  0.7890309660952100  0.5267972570385441  0.3614615109955226
  0.9585443684247560  0.6224083821270872  0.0790598082134188
  0.9572842486414472  0.8724715888448925  0.1907935617344867
  0.9567043289050167  0.6218227320754903  0.2921665054278855
  0.9569129857113969  0.8704496140947658  0.4031655620080343
  0.9603246285673309  0.6221840668271398 -0.0009053010497752
  0.9580584428744429  0.8723947056451086  0.1080013720503810
  0.9572255140471642  0.6221176756620026  0.2092016609311468
  0.9563868415060518  0.8716940275778531  0.3207433280606213
  0.6307253843997614  0.1238627787310871  0.4241810210740489
  0.5359581186511208  0.1306965170687586  0.4377579105785224
 
  0.00000000E+00  0.00000000E+00  0.00000000E+00
  0.00000000E+00  0.00000000E+00  0.00000000E+00
  0.00000000E+00  0.00000000E+00  0.00000000E+00
  0.00000000E+00  0.00000000E+00  0.00000000E+00
  0.00000000E+00  0.00000000E+00  0.00000000E+00
  0.00000000E+00  0.00000000E+00  0.00000000E+00
  0.00000000E+00  0.00000000E+00  0.00000000E+00
  0.00000000E+00  0.00000000E+00  0.00000000E+00
  0.00000000E+00  0.00000000E+00  0.00000000E+00
  0.00000000E+00  0.00000000E+00  0.00000000E+00
  0.00000000E+00  0.00000000E+00  0.00000000E+00
  0.00000000E+00  0.00000000E+00  0.00000000E+00
  0.00000000E+00  0.00000000E+00  0.00000000E+00
  0.00000000E+00  0.00000000E+00  0.00000000E+00
  0.00000000E+00  0.00000000E+00  0.00000000E+00
  0.00000000E+00  0.00000000E+00  0.00000000E+00
  0.00000000E+00  0.00000000E+00  0.00000000E+00
  0.00000000E+00  0.00000000E+00  0.00000000E+00
  0.00000000E+00  0.00000000E+00  0.00000000E+00
  0.00000000E+00  0.00000000E+00  0.00000000E+00
  0.00000000E+00  0.00000000E+00  0.00000000E+00
  0.00000000E+00  0.00000000E+00  0.00000000E+00
  0.00000000E+00  0.00000000E+00  0.00000000E+00
  0.00000000E+00  0.00000000E+00  0.00000000E+00
  0.00000000E+00  0.00000000E+00  0.00000000E+00
  0.00000000E+00  0.00000000E+00  0.00000000E+00
  0.00000000E+00  0.00000000E+00  0.00000000E+00
  0.00000000E+00  0.00000000E+00  0.00000000E+00
  0.00000000E+00  0.00000000E+00  0.00000000E+00
  0.00000000E+00  0.00000000E+00  0.00000000E+00
  0.00000000E+00  0.00000000E+00  0.00000000E+00
  0.00000000E+00  0.00000000E+00  0.00000000E+00
  0.00000000E+00  0.00000000E+00  0.00000000E+00
  0.00000000E+00  0.00000000E+00  0.00000000E+00
  0.00000000E+00  0.00000000E+00  0.00000000E+00
  0.00000000E+00  0.00000000E+00  0.00000000E+00
  0.00000000E+00  0.00000000E+00  0.00000000E+00
  0.00000000E+00  0.00000000E+00  0.00000000E+00
  0.00000000E+00  0.00000000E+00  0.00000000E+00
  0.00000000E+00  0.00000000E+00  0.00000000E+00
  0.00000000E+00  0.00000000E+00  0.00000000E+00
  0.00000000E+00  0.00000000E+00  0.00000000E+00
  0.00000000E+00  0.00000000E+00  0.00000000E+00
  0.00000000E+00  0.00000000E+00  0.00000000E+00
  0.00000000E+00  0.00000000E+00  0.00000000E+00
  0.00000000E+00  0.00000000E+00  0.00000000E+00
  0.00000000E+00  0.00000000E+00  0.00000000E+00
  0.00000000E+00  0.00000000E+00  0.00000000E+00
  0.00000000E+00  0.00000000E+00  0.00000000E+00
  0.00000000E+00  0.00000000E+00  0.00000000E+00
  0.00000000E+00  0.00000000E+00  0.00000000E+00
  0.00000000E+00  0.00000000E+00  0.00000000E+00
  0.00000000E+00  0.00000000E+00  0.00000000E+00
  0.00000000E+00  0.00000000E+00  0.00000000E+00
  0.00000000E+00  0.00000000E+00  0.00000000E+00
  0.00000000E+00  0.00000000E+00  0.00000000E+00
  0.00000000E+00  0.00000000E+00  0.00000000E+00
  0.00000000E+00  0.00000000E+00  0.00000000E+00
  0.00000000E+00  0.00000000E+00  0.00000000E+00
  0.00000000E+00  0.00000000E+00  0.00000000E+00
  0.00000000E+00  0.00000000E+00  0.00000000E+00
  0.00000000E+00  0.00000000E+00  0.00000000E+00
  0.00000000E+00  0.00000000E+00  0.00000000E+00
  0.00000000E+00  0.00000000E+00  0.00000000E+00
  0.00000000E+00  0.00000000E+00  0.00000000E+00
  0.00000000E+00  0.00000000E+00  0.00000000E+00
  0.00000000E+00  0.00000000E+00  0.00000000E+00
  0.00000000E+00  0.00000000E+00  0.00000000E+00
  0.00000000E+00  0.00000000E+00  0.00000000E+00
  0.00000000E+00  0.00000000E+00  0.00000000E+00
  0.00000000E+00  0.00000000E+00  0.00000000E+00
  0.00000000E+00  0.00000000E+00  0.00000000E+00
  0.00000000E+00  0.00000000E+00  0.00000000E+00
  0.00000000E+00  0.00000000E+00  0.00000000E+00
  0.00000000E+00  0.00000000E+00  0.00000000E+00
  0.00000000E+00  0.00000000E+00  0.00000000E+00
  0.00000000E+00  0.00000000E+00  0.00000000E+00
  0.00000000E+00  0.00000000E+00  0.00000000E+00
  0.00000000E+00  0.00000000E+00  0.00000000E+00
  0.00000000E+00  0.00000000E+00  0.00000000E+00
  0.00000000E+00  0.00000000E+00  0.00000000E+00
  0.00000000E+00  0.00000000E+00  0.00000000E+00
  0.00000000E+00  0.00000000E+00  0.00000000E+00
  0.00000000E+00  0.00000000E+00  0.00000000E+00
  0.00000000E+00  0.00000000E+00  0.00000000E+00
  0.00000000E+00  0.00000000E+00  0.00000000E+00
  0.00000000E+00  0.00000000E+00  0.00000000E+00
  0.00000000E+00  0.00000000E+00  0.00000000E+00
  0.00000000E+00  0.00000000E+00  0.00000000E+00
  0.00000000E+00  0.00000000E+00  0.00000000E+00
  0.00000000E+00  0.00000000E+00  0.00000000E+00
  0.00000000E+00  0.00000000E+00  0.00000000E+00
  0.00000000E+00  0.00000000E+00  0.00000000E+00
  0.00000000E+00  0.00000000E+00  0.00000000E+00
  0.00000000E+00  0.00000000E+00  0.00000000E+00
  0.00000000E+00  0.00000000E+00  0.00000000E+00
  0.00000000E+00  0.00000000E+00  0.00000000E+00
  0.00000000E+00  0.00000000E+00  0.00000000E+00
  0.00000000E+00  0.00000000E+00  0.00000000E+00
  0.00000000E+00  0.00000000E+00  0.00000000E+00
  0.00000000E+00  0.00000000E+00  0.00000000E+00
  0.00000000E+00  0.00000000E+00  0.00000000E+00
  0.00000000E+00  0.00000000E+00  0.00000000E+00
  0.00000000E+00  0.00000000E+00  0.00000000E+00
  0.00000000E+00  0.00000000E+00  0.00000000E+00
  0.00000000E+00  0.00000000E+00  0.00000000E+00
  0.00000000E+00  0.00000000E+00  0.00000000E+00
  0.00000000E+00  0.00000000E+00  0.00000000E+00
  0.00000000E+00  0.00000000E+00  0.00000000E+00
  0.00000000E+00  0.00000000E+00  0.00000000E+00
  0.00000000E+00  0.00000000E+00  0.00000000E+00
  0.00000000E+00  0.00000000E+00  0.00000000E+00
  0.00000000E+00  0.00000000E+00  0.00000000E+00
  0.00000000E+00  0.00000000E+00  0.00000000E+00
  0.00000000E+00  0.00000000E+00  0.00000000E+00
  0.00000000E+00  0.00000000E+00  0.00000000E+00
  0.00000000E+00  0.00000000E+00  0.00000000E+00
  0.00000000E+00  0.00000000E+00  0.00000000E+00
  0.00000000E+00  0.00000000E+00  0.00000000E+00
  0.00000000E+00  0.00000000E+00  0.00000000E+00
  0.00000000E+00  0.00000000E+00  0.00000000E+00
  0.00000000E+00  0.00000000E+00  0.00000000E+00
  0.00000000E+00  0.00000000E+00  0.00000000E+00
  0.00000000E+00  0.00000000E+00  0.00000000E+00
  0.00000000E+00  0.00000000E+00  0.00000000E+00
  0.00000000E+00  0.00000000E+00  0.00000000E+00
  0.00000000E+00  0.00000000E+00  0.00000000E+00
  0.00000000E+00  0.00000000E+00  0.00000000E+00
  0.00000000E+00  0.00000000E+00  0.00000000E+00
  0.00000000E+00  0.00000000E+00  0.00000000E+00
  0.00000000E+00  0.00000000E+00  0.00000000E+00
  0.00000000E+00  0.00000000E+00  0.00000000E+00
  0.00000000E+00  0.00000000E+00  0.00000000E+00
  0.00000000E+00  0.00000000E+00  0.00000000E+00
  0.00000000E+00  0.00000000E+00  0.00000000E+00
  0.00000000E+00  0.00000000E+00  0.00000000E+00
  0.00000000E+00  0.00000000E+00  0.00000000E+00
  0.00000000E+00  0.00000000E+00  0.00000000E+00
  0.00000000E+00  0.00000000E+00  0.00000000E+00
  0.00000000E+00  0.00000000E+00  0.00000000E+00
  0.00000000E+00  0.00000000E+00  0.00000000E+00
  0.00000000E+00  0.00000000E+00  0.00000000E+00
  0.00000000E+00  0.00000000E+00  0.00000000E+00
  0.00000000E+00  0.00000000E+00  0.00000000E+00
  0.00000000E+00  0.00000000E+00  0.00000000E+00
  0.00000000E+00  0.00000000E+00  0.00000000E+00
