Ru O  H 
 1.0000000000000000
     9.3340239999999994    0.0000000000000000    0.0000000000000000
     0.0000000000000000   12.6784260000000000    0.0000000000000000
     0.0000000000000000    0.0000000000000000   29.9755059999999993
 Ru  O   H  
  48  97   1
Cartesian
  2.7314714472640000  4.7217881599020002  1.2333421943700000
  2.7314714472640000  1.5521816599020000  4.4029521988099996
  2.7313501049519999  4.7200765723920002  7.6083529574140005
  2.7309300738719999  1.5475793912640001 10.6720594991559992
  1.1757976692559999  1.5521816599020000  1.2333421943700000
  1.1757976692559999  4.7217881599020002  4.4029521988099996
  1.1756016547520001  1.5503306097060001  7.5714531095279991
  1.1751349535519999  4.7169576795959998 10.8718462466459993
  5.8428096692559999  4.7217881599020002  1.2333421943700000
  5.8428096692559999  1.5521816599020000  4.4029521988099996
  5.8427910012080000  4.7203301409120000  7.6087126634859992
  5.8422309597680000  1.5475159991340000 10.6719995481439991
  4.2871452252719999  1.5521816599020000  1.2333421943700000
  4.2871452252719999  4.7217881599020002  4.4029521988099996
  4.2870518850319996  1.5504827508179999  7.5715430360460001
  4.2866785240720002  4.7169830364480001 10.8716663936099991
  8.9541572252719988  4.7217881599020002  1.2333421943700000
  8.9541572252719988  1.5521816599020000  4.4029521988099996
  8.9540172149119996  4.7202160350779998  7.6086227369680000
  8.9534385054239998  1.5475793912640001 10.6721494256740002
  7.3984834472639998  1.5521816599020000  1.2333421943700000
  7.3984834472639998  4.7217881599020002  4.4029521988099996
  7.3984367771439992  1.5506729272080000  7.5714531095279991
  7.3980727502079988  4.7169957148739998 10.8721759772120006
  2.7314714472640000 11.0610011599020002  1.2333421943700000
  2.7314714472640000  7.8913946599019997  4.4029521988099996
  2.7313501049519999 11.0592768939660004  7.6083529574140005
  2.7309300738719999  7.8867923912639997 10.6720894746620001
  1.1757976692559999  7.8913946599019997  1.2333421943700000
  1.1757976692559999 11.0610011599020002  4.4029521988099996
  1.1756016547520001  7.8895436097059992  7.5714531095279991
  1.1751349535519999 11.0561706795960006 10.8718462466459993
  5.8428096692559999 11.0610011599020002  1.2333421943700000
  5.8428096692559999  7.8913946599019997  4.4029521988099996
  5.8427910012080000 11.0595304624859985  7.6087126634859992
  5.8422402937919999  7.8867289991340002 10.6720295236500000
  4.2871452252719999  7.8913946599019997  1.2333421943700000
  4.2871452252719999 11.0610011599020002  4.4029521988099996
  4.2870332169839998  7.8896957508179995  7.5715730115519992
  4.2866691900479994 11.0561960364480001 10.8716963691160000
  8.9541572252719988 11.0610011599020002  1.2333421943700000
  8.9541572252719988  7.8913946599019997  4.4029521988099996
  8.9540172149119996 11.0594163566520010  7.6086227369680000
  8.9534385054239998  7.8867797128380008 10.6721794011799993
  7.3984834472639998  7.8913946599019997  1.2333421943700000
  7.3984834472639998 11.0610011599020002  4.4029521988099996
  7.3984367771439992  7.8898859272079997  7.5714830850340000
  7.3980634161839998 11.0562087148739998 10.8721759772120006
  1.1757976692559999  5.9551327627560005  1.2333421943700000
  1.1757976692559999  2.7855262627560000  4.4029521988099996
  1.1753963062240000  5.9478807030839995  7.5952236857860003
  1.1748362647840001  2.7550219698000000 10.8032622889179990
  1.1757976692559999  3.4884562354739996  1.2333421943700000
  1.1757976692559999  0.3188497354740000  4.4029521988099996
  1.1755829867040000  3.4923992259599999  7.5936949349800003
  1.1750322792879999  0.3399466363380000 10.8016136360879997
  2.7314714472640000  1.5521816599020000  2.4666843887400001
  2.7314714472640000  4.7217881599020002  5.6362943931800000
  2.7312100945919995  1.5499375785000000  8.8023672879120003
  2.7309114058240000  4.7166787542240005 11.9862156577019991
  2.7314714472640000  1.5521816599020000  0.0000000000000000
  2.7314714472640000  4.7217881599020002  3.1696100044400000
  2.7314341111679998  1.5502038254460000  6.3425173145400002
  2.7309300738719999  4.7170591070040002  9.5628458751319982
  4.2871452252719999  5.9551327627560005  1.2333421943700000
  4.2871452252719999  2.7855262627560000  4.4029521988099996
  4.2872759016079991  5.9480074873440003  7.5952536612919994
  4.2867998663839995  2.7550600050780001 10.8028126563279994
  4.2871452252719999  3.4884562354739996  1.2333421943700000
  4.2871452252719999  0.3188497354740000  4.4029521988099996
  4.2872012294159996  3.4925260102199998  7.5939946900399997
  4.2867158601680000  0.3399339579120000 10.8014637585580004
  5.8428096692559999  1.5521816599020000  2.4666843887400001
  5.8428096692559999  4.7217881599020002  5.6362943931800000
  5.8424643103680003  1.5503940018360001  8.8022773613939993
  5.8423989721999989  4.7172619618200002 11.9867851923160007
  5.8428096692559999  1.5521816599020000  0.0000000000000000
  5.8428096692559999  4.7217881599020002  3.1696100044400000
  5.8427163290160005  1.5505714998000000  6.3422775104919999
  5.8424736443919993  4.7174901734879997  9.5629358016499992
  7.3984834472639998  5.9551327627560005  1.2333421943700000
  7.3984834472639998  2.7855262627560000  4.4029521988099996
  7.3984647792159990  5.9481215931779996  7.5961529264720005
  7.3978767357040001  2.7551233972080000 10.8032922644239999
  7.3984834472639998  3.4884562354739996  1.2333421943700000
  7.3984834472639998  0.3188497354740000  4.4029521988099996
  7.3983994410479994  3.4927415434619999  7.5936349839680002
  7.3979514078959996  0.3397184246700000 10.8012839055220002
  8.9541572252719988  1.5521816599020000  2.4666843887400001
  8.9541572252719988  4.7217881599020002  5.6362943931800000
  8.9541478912479988  1.5504827508179999  8.8023672879120003
  8.9536251859040004  4.7172999970979994 11.9871448983879993
  8.9541572252719988  1.5521816599020000  0.0000000000000000
  8.9541572252719988  4.7217881599020002  3.1696100044400000
  8.9540452169839995  1.5506475703559999  6.3422475349859999
  8.9538025323599992  4.7173760676539995  9.5629058261439983
  1.1757976692559999 12.2943457627559987  1.2333421943700000
  1.1757976692559999  9.1247392627560000  4.4029521988099996
  1.1753963062240000 12.2870937030840004  7.5952236857860003
  1.1748362647840001  9.0942349698000005 10.8033222399299991
  1.1757976692559999  9.8276692354739996  1.2333421943700000
  1.1757976692559999  6.6580627354740001  4.4029521988099996
  1.1755829867040000  9.8316249043859987  7.5936949349800003
  1.1750322792879999  6.6791596363379995 10.8016436115939989
  2.7314714472640000  7.8913946599019997  2.4666843887400001
  2.7314714472640000 11.0610011599020002  5.6362943931800000
  2.7312100945919995  7.8891505784999998  8.8023972634179994
  2.7309114058240000 11.0559171110759991 11.9862156577019991
  2.7314714472640000  7.8913946599019997  0.0000000000000000
  2.7314714472640000 11.0610011599020002  3.1696100044400000
  2.7314341111679998  7.8894168254460002  6.3425472900460003
  2.7309300738719999 11.0562467501520008  9.5628458751319982
  4.2871452252719999 12.2943457627559987  1.2333421943700000
  4.2871452252719999  9.1247392627560000  4.4029521988099996
  4.2872759016079991 12.2872204873439994  7.5952836367980003
  4.2868092004079994  9.0942730050779996 10.8028426318340003
  4.2871452252719999  9.8276692354739996  1.2333421943700000
  4.2871452252719999  6.6580627354740001  4.4029521988099996
  4.2872012294159996  9.8317390102199997  7.5939946900399997
  4.2867251941919999  6.6791469579119997 10.8014937340639996
  5.8428096692559999  7.8913946599019997  2.4666843887400001
  5.8428096692559999 11.0610011599020002  5.6362943931800000
  5.8424643103680003  7.8896070018360005  8.8023073369000002
  5.8423896381759999 11.0565129970980003 11.9868151678219999
  5.8428096692559999  7.8913946599019997  0.0000000000000000
  5.8428096692559999 11.0610011599020002  3.1696100044400000
  5.8427163290160005  7.8897844997999993  6.3423074859980000
  5.8424736443919993 11.0566904950620000  9.5629358016499992
  7.3984834472639998 12.2943457627559987  1.2333421943700000
  7.3984834472639998  9.1247392627560000  4.4029521988099996
  7.3984647792159990 12.2873345931780005  7.5961529264720005
  7.3978767357040001  9.0943490756339997 10.8033522154360000
  7.3984834472639998  9.8276692354739996  1.2333421943700000
  7.3984834472639998  6.6580627354740001  4.4029521988099996
  7.3983994410479994  9.8319545434620004  7.5936349839680002
  7.3979514078959996  6.6789314246700000 10.8012839055220002
  8.9541572252719988  7.8913946599019997  2.4666843887400001
  8.9541572252719988 11.0610011599020002  5.6362943931800000
  8.9541478912479988  7.8896957508179995  8.8023972634179994
  8.9536251859040004 11.0565510323759995 11.9871448983879993
  8.9541572252719988  7.8913946599019997  0.0000000000000000
  8.9541572252719988 11.0610011599020002  3.1696100044400000
  8.9540452169839995  7.8898605703560003  6.3422475349859999
  8.9538025323599992 11.0565637108019992  9.5629058261439983
  4.5715894325858395  1.3789147402267201 12.2279144574362597
  3.7056227424591199  1.5023128462106399 12.9112699645340410
